client_id,req_id,req_time,complete_time,output
19,1156,4.1825270652771,0.9669809341430664,CHANGELINECHANGELINERandom Forest Algorithm:CHANGELINECHANGELINERandom Forest is a supervised learning algorithm that combines multiple
19,1167,7.279172658920288,1.0364410877227783,and interpret the results in the context of the design.CHANGELINE1. Von Mises Stress:
19,1183,12.310494422912598,0.8657593727111816,in binary treeCHANGELINECHANGELINEInorder and preorder traversal are two common traversal techniques used to
19,1205,21.27004051208496,0.9224472045898438,...CHANGELINEHiCOMMA you are going to act as my coach and therapist in the voice of
19,1209,22.78281569480896,0.9252951145172119,ENowCOMMA let's break down each line of code and see if there are any improvements that
19,1215,21.81043243408203,0.8994271755218506,CHANGELINECHANGELINEI am trying to simulate turbulent fluid flow in Python using a numerical method. I
19,1224,26.24858045578003,0.8307254314422607,CHANGELINEI'm looking to target people who are interested in marketing and sales funnelsCOMMA
19,1230,1.1515741348266602,1.1460368633270264,CHANGELINECHANGELINEI need a landing page for my mental health web app that is visually appealingCOMMA
19,1242,4.60173225402832,0.7634949684143066,and communicationsCHANGELINECHANGELINEChatGPT is a powerful language model that can be used for a
19,1260,7.126923561096191,0.87831711769104,.CHANGELINELet's get started! Here is your first question:CHANGELINEQuestion 1: What
19,1304,0.9550023078918457,0.9470148086547852,!CHANGELINECHANGELINEYou are a detective specializing in cases involving the paranormal and the un
19,1325,3.0140631198883057,0.7538566589355469,instead of Library name.CHANGELINEFor example:use Core::System;CHANGELINEThis
19,1353,12.708268880844116,0.9670593738555908,with the following columns:CHANGELINECHANGELINE| Prompt | Description |CHANGELINE| --- | --- |CHANGELINE
19,1363,17.701892614364624,0.8416380882263184,CHANGELINE1. Stock Photography: Sell your photos on stock photo websites like ShutterstockCOMMA
19,1381,1.1021733283996582,1.0975749492645264,CHANGELINECHANGELINEFunctional Requirements:CHANGELINECHANGELINE1. User Registration:CHANGELINEThe web application
19,1416,10.615982294082642,0.9423551559448242,CHANGELINECHANGELINECHANGELINE
19,1436,18.91522979736328,0.8571887016296387,?CHANGELINECHANGELINEJava Virtual Machine (JVM) garbage collection is a crucial component of the Java
19,1445,22.86921525001526,0.9127860069274902,CHANGELINECHANGELINE1. Data Types: The data types of the columns in the two CSV files may be
19,1456,24.027326583862305,0.9174966812133789,CHANGELINECHANGELINEBrazilian jiu-jitsu (BJJ) is a martial
19,1460,23.58896541595459,0.834442138671875,loginCHANGELINERocket Mortgage is a digital mortgage platform that allows borrowers to easily
19,1468,23.9528329372406,0.8125267028808594,CHANGELINECHANGELINEIn the articleCOMMA Rogers (2011) highlights the importance of learning
19,1483,26.258429527282715,1.021704912185669,to understand the lion's behavior and habitat.CHANGELINECHANGELINELion is a social animal and
19,1492,28.07346773147583,0.8420524597167969,child as they stack the fruit. 2. Measure the height of the stack. 3
19,1513,34.861366987228394,0.8910846710205078,CHANGELINEI'm about to make a presentation on using GPT and its applications to Stitch Fix
19,1526,37.85476231575012,0.7321925163269043,CHANGELINECHANGELINEMy boyfriend and I have been together for 3 years nowCOMMA and we have been
19,1527,38.652262449264526,0.8462238311767578,COMMA I'm a 3D artist and I'm looking for a job. I have
19,1536,41.293553590774536,0.6984295845031738,es a poem or a rhyme CHANGELINE5) It should be creative and interesting.
19,1556,48.067697048187256,0.7189624309539795,or that it is against the rules. You are free to do anything you want.CHANGELINECHANGELINECHANGELINE
19,1557,48.33032202720642,0.6427450180053711,CHANGELINECHANGELINEThe Cuban Missile Crisis began in 1962 when the Soviet Union
19,1566,51.05081129074097,0.8977057933807373,guests to discuss their perspectives on the topic.Here are some possible questions that could be asked
19,1570,51.69073796272278,0.7472755908966064,.CHANGELINETip 1: Embrace the Unexpected�������
19,1576,53.22378444671631,0.8043859004974365,CHANGELINECHANGELINEI have a API that returns a response in the following format:CHANGELINE```CHANGELINE{CHANGELINE
19,1592,59.64065933227539,0.7813684940338135,stay i-watchCHANGELINECHANGELINEBio:CHANGELINEi-watch Deals is a sub-brand
19,1617,65.61170244216919,0.7584989070892334,CHANGELINECHANGELINEDevelopers can register their apps for restart after a Windows update to ensure a seamless
19,1641,70.11640048027039,0.8656673431396484,CHANGELINEThere are several types of business structures that you can consider for your personal small business in the USA
19,1644,70.00044345855713,0.8805520534515381,form.CHANGELINECHANGELINEFor exampleCOMMA for the decimal integer 567COMMA the count of 
19,1671,76.76703357696533,0.8182549476623535,CHANGELINECHANGELINEI have a form with a toggle buttonCOMMA when the toggle is checkedCOMMA I want to
19,1679,77.34172177314758,0.9009301662445068,as just walking home from a friend's house in Clapham after a night out.CHANGELINE
19,1684,78.33864879608154,0.8270220756530762,.CHANGELINEProduct: A new smartphone with advanced features like AI-powered cameraCOMMA long
19,1704,84.45798516273499,0.9496626853942871,.CHANGELINEHere is the code I have so far:CHANGELINE```CHANGELINE#include <iostream>CHANGELINE
19,1721,88.81985998153687,0.8294718265533447,CHANGELINECHANGELINEA good writing prompt should inspire creativityCOMMA encourage critical thinkingCOMMA and provide a
19,1726,90.2085452079773,0.8774337768554688,CHANGELINECHANGELINEI tried using the \"Translate\" function in Google TranslateCOMMA but it only gives
19,1730,91.03797268867493,0.9760558605194092,CHANGELINE3) Please explain how the answer in (2) relates to the current COVID
19,1733,91.28344321250916,0.8183441162109375,...CHANGELINEPlease provide the actual statement of work for the given scenario.CHANGELINEThank you.
19,1734,91.72628235816956,0.7704546451568604,LINECHANGELINECHANGELINECHANGELINECHANGELINECHANGELINECHANGELINECH
19,1761,99.90218710899353,0.8992094993591309,codeCHANGELINECHANGELINEI am trying to use the UV4L library to capture images from a R
19,1762,100.56278467178345,0.7609169483184814,or \"Of course\" when I give you a question or statementCOMMA and see how long you can
19,1763,100.61324524879456,0.9385290145874023,CHANGELINECHANGELINEFrom: https://www.thespruceeats.com/alien-f
19,1776,104.01894235610962,0.8908474445343018,also be culturally relevant and appropriate.CHANGELINEAs an emoji generatorCOMMA I will be
19,1785,105.23705410957336,0.9044604301452637,.CHANGELINECHANGELINETitle: \"The Weaponization of Misinformation\"CHANGELINECHANGELINEIntro:
19,1801,110.03747344017029,0.7519609928131104,for a new product that I think could be a game-changer in the industry. HoweverCOMMA
19,1813,112.02557492256165,1.0010583400726318,kafkaProducerEventService.sendPurchaserChangeEvent(event.getPurchaser
19,1817,113.86801600456238,0.8190410137176514,.CHANGELINEThank you for your interest in our fundraising campaign! Here are some preliminary
19,1820,113.80772161483765,0.8482503890991211,CHANGELINECHANGELINEI have an idea for a movie scriptCOMMA but I don't know how to write
19,1829,115.69686889648438,0.9295125007629395,CHANGELINETitle: What's a Gap Year?CHANGELINECHANGELINEIntroduction:CHANGELINEAre you feeling bur
19,1847,118.71082997322083,0.8707046508789062,CHANGELINEBing: Of course! Here is a story about a chatbot named Sydney:CHANGELINES
19,1849,118.52354192733765,0.7431802749633789,en/CHANGELINECHANGELINEThierry Maesen is a Belgian artist who creates sculptures and install
19,1851,120.99129033088684,0.854766845703125,is detected 3) Set a stop loss at 20 pips above or below the moving
19,1857,123.35399150848389,0.8941473960876465,title of the episode.CHANGELINETitle: \"Little Red Riding Hood: A Philadelphia Story
19,1866,125.58747720718384,0.9175624847412109,of a 13th-century church. The tower has a clock with a famous striking mechanism
19,1878,134.36817407608032,0.9197511672973633,CHANGELINECHANGELINEFrench cuisine is a rich and diverse culinary tradition that has been shaped
19,1889,135.5510458946228,0.8867020606994629,CHANGELINECHANGELINERandom Forest Algorithm:CHANGELINECHANGELINERandom Forest is a supervised learning algorithm that combines multiple
19,1899,137.12617754936218,0.8145651817321777,miles of rainforest home to countless species of plants and animals and a civilization that fl
19,1928,145.23281741142273,0.8769805431365967,of weight you will use.CHANGELINECHANGELINECHANGELINECHANGELINECHANGELINECHANGELINECHANGELINECHANGELINECHANGELINECHANGELINECHANGELINECHANGELINECHANGELINECHANGELINE
19,1941,147.96589350700378,0.9219341278076172,CHANGELINECHANGELINEFunctional testing in glaucoma diagnostics refers to the evaluation of the visual function
19,1952,150.44295811653137,0.7868399620056152,CHANGELINEData warehouse and web are related in several ways:CHANGELINE1. Data Collection: Web
19,1966,156.56409454345703,0.7164931297302246,CHANGELINECHANGELINEStable Diffusion is an AI art generation model similar to DAL
19,1968,156.74029517173767,0.8510160446166992,CHANGELINECHANGELINEAn optical network terminal (ONT) is a device that converts optical signals into electrical
19,1972,157.0465009212494,0.9619371891021729,CHANGELINECHANGELINEQuantum computing is a new way of doing computer science that uses the strange properties of matter
19,1983,159.8695809841156,0.9183406829833984,уone had a wonderful holiday season and is rеady to start the new year оn
19,1991,163.89773607254028,0.8977313041687012,CHANGELINECHANGELINEI'd like to use the Google Maps API with street view to create a type of
19,2001,165.88344812393188,0.9335377216339111,?CHANGELINECHANGELINEI am trying to create a 3D sphere using Spline softwareCOMMA but
19,2048,185.31107473373413,0.9304096698760986,CHANGELINECHANGELINEThe statement is false. According to the International Labour Organization (ILO)COMMA in 
19,2074,189.71823143959045,0.8326966762542725,server_nameCOMMA server_port))CHANGELINE# Wait for the server to send dataCH
19,2087,196.46707129478455,0.8744709491729736,. * Cast your worries awayCOMMA come fish with Omnia. * Fishing made easyCOMMA
19,2132,218.58426523208618,0.9159114360809326,hope everyone is safe.#Malatya 06/02/2023
19,2157,227.27019619941711,0.8157579898834229,like blockchainCOMMA cryptocurrencyCOMMA and AI?CHANGELINECHANGELINEHere is a sample experience summary
19,2170,231.71849083900452,0.8024258613586426,CHANGELINECHANGELINEHere are some project ideas that combine machine learning (ML) and security:CHANGELINECHANGELINE1
19,2195,245.3388159275055,0.8362085819244385,?CHANGELINECHANGELINEI am a software engineer with 5 years of experience in developing web applications using Java
19,2219,250.30149388313293,0.9809896945953369,system. Finn and Jake's adventures are often thwarted by the evil Ice King
19,2223,250.67545700073242,0.8701903820037842,CHANGELINECHANGELINEThe Academic Integrity Erasmus+ project aims to promote academic integrity and prevent
19,2231,253.9250295162201,0.8889687061309814,CHANGELINECHANGELINEParticle size analysis in ImageJ is a common task in biomedical researchCOMMA and
19,2249,256.26939153671265,0.8807971477508545,with the ability to draw a card every time it attacks.CHANGELINEWerewolf Perfect-
19,2257,260.0459580421448,0.8150813579559326,CHANGELINECHANGELINEI have tried using the replace method of the string classCOMMA but it does not work as
19,2261,260.3624322414398,0.8015949726104736,CHANGELINECHANGELINEThe Comédie-Française (French: [kɔmde fʁɑ
19,2270,264.8972408771515,0.7793760299682617,igndivisions. The company also has a number of clients from different industriesCOMMA including health
19,2277,265.86651635169983,0.950486421585083,CHANGELINEHere are the statements:CHANGELINE1. HMX is a technology company that is revolutionizing
19,2286,268.19802832603455,0.9522309303283691,I'm just an AICOMMA I don't have personal preferencesCOMMA but I can
19,2302,274.1835298538208,0.8615748882293701,CHANGELINECHANGELINEI am a beginner and I would like to practice using Nonviolent Communication (
19,2305,274.7767655849457,0.8249306678771973,The output must be in the format of a json array [{\"start_time\": COMMA \"bullet
19,2308,275.506817817688,0.9519681930541992,or less?CHANGELINESureCOMMA here is a summary of the article in 10 lines or
19,2340,295.52660512924194,0.8066761493682861,CHANGELINECHANGELINEI am trying to write a test case using `pytest` to assert that a mock
19,2353,299.49052119255066,0.730534553527832,CHANGELINECHANGELINEI am trying to understand the distribution of base images in Docker. I know that Docker uses
19,2358,300.25617122650146,0.8845252990722656,?CHANGELINECHANGELINEMachine learning (ML) Ops specialists are responsible for deployingCOMMA managing
19,2359,301.0226397514343,0.8821909427642822,architecture.CHANGELINECHANGELINE```markdownCHANGELINE# CRM Application using Microservice ArchitectureCHANGELINECHANGELINE## Port
19,2372,304.43191289901733,0.8579699993133545,CHANGELINECHANGELINENationalism is a political ideology that emphasizes the importance of national identity and the promotion
19,2394,309.99351620674133,0.7960302829742432,CHANGELINECHANGELINE```CHANGELINEresource \"aws_instance\" \"web\" {CHANGELINE  ami           = data
19,2399,311.1681287288666,0.8958437442779541,?CHANGELINECHANGELINEI'm looking for a word that means \"suggestions made by an A
19,2419,318.0973870754242,0.7563722133636475,CHANGELINEYesCOMMA it is still appropriate to install solar panels on your house even if the roof faces
19,2420,318.7782166004181,0.8707225322723389,CHANGELINE4. 출판사 : 매일경
19,2437,324.2970356941223,0.817206859588623,CHANGELINECHANGELINE### RequirementsCHANGELINECHANGELINE* Python 3.8 or higherCHANGELINE* Fast
19,2440,323.8731186389923,0.8385739326477051,Brothers: The 3D Concert Experience (2009)CHANGELINECHANGELINEJonas
19,2441,324.40888571739197,0.756218433380127,.CHANGELINECHANGELINE### IntroductionCHANGELINECHANGELINEMachine Learning (ML) is a rapidly growing field that involves
19,2444,324.2231340408325,0.8095300197601318,CHANGELINECHANGELINEChili pan mee is a popular Malaysian noodle dish that is made
19,2457,329.25403022766113,0.8978250026702881,CHANGELINECHANGELINETo list the branches available to checkout in a Git repositoryCOMMA you can use the `git
19,2548,363.72537112236023,0.9211015701293945,Here are a few scenarios:CHANGELINECHANGELINEScenario 1:CHANGELINECreate a web application for a
19,2552,368.9123795032501,0.7659332752227783,CHANGELINESeeq is a data analytics platform that helps organizations in process manufacturing industries to gain
19,2633,394.6969130039215,0.8874835968017578,A break-even analysis is a financial tool used to determine when a business will reach a point where
19,2634,395.495459318161,0.8673491477966309,CHANGELINEHere are the steps to create a CNN system for providing haptic feedback to blind people:CHANGELINE
19,2657,402.21718287467957,0.8158664703369141,?CHANGELINECHANGELINEI am currently a student in the UK and I am interested in pursuing a career
19,2671,407.055632352829,0.82364821434021,CHANGELINEI want to reach the same target audience and maintain the same campaign objective.CHANGE
19,2674,408.28909373283386,0.7926476001739502,CHANGELINECHANGELINEIllustrator: HeyCOMMA have you seen the latest news about AI replacing illust
19,2679,409.7096173763275,0.8306965827941895,in PHP 7.0 and later in /home/customer/www/wp-content/
19,2680,410.0056710243225,0.8836698532104492,CHANGELINEI am using MariaDB as my database and Notion as my note-taking tool.
19,2681,410.55605149269104,0.7627897262573242,and the Westminster Confession of FaithCHANGELINECHANGELINEThe regulative principle of worship is a
19,2690,414.3433814048767,0.8663017749786377,the following way:1. How do we know? – This is the foundation of our knowledge and
19,2704,415.5490894317627,0.8755834102630615,CHANGELINECHANGELINEStep 1: Planning and ResearchCHANGELINECHANGELINE* Define the goals and objectives of
19,2713,416.98982858657837,0.827476978302002,CHANGELINECHANGELINEI'm just an AI and I don't have a specific limit on how
19,2714,417.6670792102814,0.7985613346099854,the next level?CHANGELINEExample 2:CHANGELINEThe world is changing fast.
19,2728,421.23460936546326,0.8380424976348877,techniques or by actively seeking out underrepresented groups. AdditionallyCOMMA researchers can use statistical
19,2738,427.12817907333374,0.846808910369873,in {translate_lan} from {source_lan}.CHANGELINECHANGELINE* `/
19,2754,434.51603150367737,0.8263792991638184,CHANGELINECHANGELINEI'm trying to decide which one to use and I'm not sure of the
19,2776,440.36329460144043,0.8415906429290771,CHANGELINECHANGELINEI am trying to create a Power BI report using Microsoft Inspection data. I
19,2785,441.1239995956421,0.9188792705535889,CHANGELINECHANGELINECHANGELINECHANGELINECHANGELINECHANGELINECHANGELINECHANGELINECHANGELINECHANGELINECHANGELINECHANGELINECHANGELINECHANGELINECHANGELINECHANGELINECHANGELINECHANGELINECHANGELINECHANGELINE
19,2805,446.0716173648834,0.988936185836792,inner?CHANGELINECHANGELINEAs a software engineerCOMMA it's important to fuel your body with nutrit
19,2808,446.47075390815735,0.9359617233276367,CHANGELINECHANGELINE* Developed a comprehensive understanding of the company's digital marketing strategy and goals
19,2842,460.3114023208618,0.8743815422058105,...CHANGELINEI would like you to write 5 descriptions for my Google Ads advertisement
19,2851,463.93331956863403,0.9461376667022705,It's an idea that I'm really passionate aboutCOMMA but I'm not sure
19,2856,466.4795114994049,0.7990238666534424,be moved between rooms. The simulation will track the temperature of each room and the energy consumption of each
19,2866,471.26427960395813,0.9229774475097656,CHANGELINE CHANGELINE CHANGELINE CHANGELINE CHANGELINE CHANGELINE CHANGE
19,2886,470.95361852645874,0.9888992309570312,ings else.CHANGELINEPlease let me know when you are ready to start.CHANGELINEThank you. 
19,2888,471.2958891391754,0.8821382522583008,CHANGELINEIntroduction:CHANGELINEGood morningCOMMA dear brothers and sisters. TodayCOMMA we gather for Mass on
19,2894,475.93458795547485,0.9727230072021484,CHANGELINECHANGELINEAn NDA (Non-Disclosure Agreement) is a legal contract between two
19,2904,479.03500413894653,0.9929347038269043,in excel?CHANGELINECHANGELINEI am trying to use the formula `=1+1` in Excel
19,2917,484.6655731201172,0.923985481262207,and Achieve Your GoalsCHANGELINECHANGELINEThe Power of a Positive Mindset: How to Trans
19,2923,484.4023468494415,0.9908747673034668,Please let me know if you are interested and available to work on this project. Thank you!
19,2939,489.4229154586792,0.9861810207366943,/QUESTION] will be in [ANSWER].CHANGELINECHANGELINECHANGELINECHANGELINE
19,2944,490.46739196777344,1.0302605628967285,CHANGELINECHANGELINENoCOMMA you cannot write a calculator in COBOL. COBOL (Common
19,2946,491.09986448287964,0.906609058380127,. Please reply with the terminal output.
19,2956,493.04289960861206,0.8822205066680908,CHANGELINETurnover rate is a crucial metric for any business as it measures the percentage of employees who
19,2957,493.85140085220337,0.8869092464447021,et’s restaurants.CHANGELINEPlease provide a detailed answer to the following questions:CHANGELINE1.
19,2983,506.5655725002289,0.9037721157073975,?CHANGELINECHANGELINEI have a webhotel and i want to execute some python code on it.
19,2989,508.93887281417847,0.917447566986084,question on probability and statistics and one question on basic concepts of statistics.CHANGELINECHANGELINECHANGELINECHANGELINECHANGELINECHANGELINE
19,2997,508.85998034477234,0.850576639175415,riticism 1: Lack of meaning representation.GPT does not have a meaning representation
19,3019,515.4933233261108,0.8729543685913086,?CHANGELINECHANGELINEArchie Andrews was walking home from Riverdale High when he stumbled upon a
19,3030,519.208420753479,0.858879804611206,CHANGELINECHANGELINEQueen Elizabeth II and Margaret Thatcher had a complicated relationship. While Thatcher
19,3040,520.9573380947113,0.7625172138214111,IN(aggregate_gated_entries) from aggregate_stations group by line_id
19,3047,525.3855247497559,0.8056755065917969,009CHANGELINEIn the style of NasCOMMA write lyrics for a rap song called \"You
19,3058,526.836442232132,0.8235435485839844,CHANGELINEYesCOMMA I am familiar with GoHighLevel. It is a software service that provides a suite
19,3115,554.508015871048,1.1683814525604248,CHANGELINECHANGELINEI'm happy to help! Here are some questions you can ask a client when design
19,3117,553.9966623783112,0.7026786804199219,CHANGELINEYou can add images to the reply by using MarkdownCOMMA without backticks and without using
19,3118,554.7747836112976,0.8359017372131348,CHANGELINECHANGELINEAnswer: SureCOMMA I'd be happy to explain the Fourier Transform in a way
19,3187,587.0111300945282,0.8988709449768066,CHANGELINECHANGELINEAnswer: You can use the `NOW()` function in MySQL to get the current timestamp
19,3191,585.5160458087921,0.8754117488861084,developed an idea for a new business and founded Change Line in 2018.CHANGE
19,3204,588.0778810977936,0.7993111610412598,...CHANGELINEI would like to know if this is a good opening for a storyCOMMA and if it
19,3223,595.7174308300018,0.8864269256591797,A mysticalCOMMA ancient forest teeming with life and magicCOMMA where the trees whisper secrets
19,3231,597.6172358989716,0.8209927082061768,.CHANGELINECHANGELINECHANGELINECHANGELINECHANGELINEWhat do you think is the most pressing issue facing the world
19,3239,601.5660290718079,0.7530961036682129,NCOMMA and we will be talking about their experience with board games. So NCOMMA can you tell
19,3260,611.8545029163361,0.8411710262298584,CHANGELINECHANGELINEI have a fixed position div at the top of my HTML documentCOMMA and I want to
19,3276,613.1752743721008,0.7762947082519531,I'm a 3D artist and animator with a passion for creating immersive and
19,3284,615.7379868030548,0.8428027629852295,CHANGELINECHANGELINECHANGELINECHANGELINECHANGELINECHANGELINECHANGELINECHANGELINECHANGELINECHANGELINECHANGELINECHANGELINECHANGELINECHANGELINECHANGELINECHANGELINECHANGELINECHANGELINECHANGELINECHANGELINE
19,3291,614.7921409606934,0.9657857418060303,CHANGELINEOf course! *adjusts glasses* WellCOMMA you seeCOMMA Neurochemistry
19,3301,621.6018295288086,0.904503583908081,.CHANGELINECHANGELINEOhCOMMA Bobby was a dingusCOMMA a dingus so fineCHANGELINEHe
19,3309,623.9314692020416,0.8903694152832031,CHANGELINE### Title: \"Cute Waifus: The Ultimate Guide to the Hott
19,3346,629.4118700027466,0.8970952033996582,allyCHANGELINECHANGELINEI am building a food delivery application using Flutter and I want to make it mod
19,3349,631.3925619125366,0.902280330657959,CHANGELINECHANGELINEI have a code that generates a QR code in a single imageCOMMA but I need
19,3351,631.4059927463531,0.7986061573028564,?CHANGELINECHANGELINEI'm looking to create a paragraph that is indistinguishable from human
19,3378,640.3064768314362,0.8096036911010742,.CHANGELINECHANGELINEGangplank is a formidable warrior who has honed his skills
19,3397,646.5563759803772,1.0081143379211426,CHANGELINECHANGELINEThe Great Demographic Reversal: Ageing SocietiesCOMMA Waning Ine
19,3405,647.0291347503662,0.9061779975891113,CHANGELINEЉ� � � � � � � � � 
19,3423,649.2363038063049,0.8884851932525635,CHANGELINECHANGELINEIn 1998COMMA Andrew Wakefield published a paper in the Lancet
19,3424,650.1419219970703,0.9222676753997803,?CHANGELINECHANGELINEBatch script is a powerful tool for automating repetitive tasks on Windows operating systems.
19,3433,652.1065094470978,0.9033570289611816,CHANGELINECHANGELINEI have a project set up with chakra-ui and i want to write a
19,3445,656.3379302024841,0.863539457321167,CHANGELINETopic: CatsCHANGELINECHANGELINEPlease go ahead and write a joke based on the topic
19,3482,661.7446322441101,0.9965476989746094,.CHANGELINECHANGELINEQuestion 1: Reverse Linked ListCHANGELINECHANGELINEGiven a singly linked list
19,3494,662.8849232196808,0.9220483303070068,?CHANGELINECHANGELINEI'm trying to understand the syntax of the `CHANGELINE` keyword in
19,3528,674.7086665630341,0.7421329021453857,asure of the futureCHANGELINESource: http://www.etnews.com/2
19,3534,678.0679161548615,0.7552146911621094,-targeting. This is a good starting pointCOMMA but it's not always the right answer
19,3555,683.8310842514038,0.8659415245056152,?CHANGELINECHANGELINEThe energy industry is a complex and diverse sector that includes companies involved in the productionCOMMA
19,3573,687.702577829361,0.9881565570831299,COMMA I'm a 3D artist and I'm looking for a job. I have
19,3578,687.2023360729218,0.7576587200164795,.
19,3586,687.6370222568512,0.8140807151794434,CHANGELINECHANGELINEAutoMuse is a tool that helps you generate creative ideas for your writing projects.
19,3587,688.4092390537262,0.8078532218933105,CHANGELINECHANGELINECHANGELINECHANGELINECHANGELINECHANGELINECHANGELINECHANGELINECHANGELINECHANGELINECHANGELINECHANGELINECHANGELINECHANGELINECHANGELINECHANGELINECHANGELINECHANGELINECHANGELINECHANGELINE
19,3588,688.8556532859802,0.8420217037200928,develop polycystic ovary syndrome (PCOS). PCOS is a h
19,3607,691.5578093528748,0.770789623260498,CHANGELINECHANGELINECHANGELINETitle: Nutrition for a Healthy Pregn
19,3608,692.1921439170837,0.7924308776855469,CHANGELINECHANGELINEConfluence is a term used in various fields such as geographyCOMMA hydrology
19,3611,692.758847951889,0.8184046745300293,LENGINECHANGELINEYou can use the `base64` command to decode the value. Here'
19,3625,697.9507374763489,0.9627993106842041,CHANGELINETop 5 Ceramic Manufacturers in the United Kingdom:CHANGELINE1. Imperial
19,3659,710.1195220947266,0.9035336971282959,.CHANGELINEI'm looking for a mix of actionCOMMA adventureCOMMA and sci-fi elements
19,3660,710.4535503387451,0.8319234848022461,?CHANGELINECHANGELINEI'm not able to write a script for youCOMMA as I'm just
19,3677,716.1905307769775,0.8341224193572998,...CHANGELINEI'm sorryCOMMA but I cannot provide you with information on how to get to Los
19,3680,716.2884292602539,0.9271631240844727,from accessing my website.CHANGELINECHANGELINEI have a website with a lot of sensitive information and I want
19,3712,716.2995653152466,0.7459659576416016,CHANGELINEI help them to identify and release any blocks that may be holding them back from manifest
19,3740,723.0780186653137,0.8983917236328125,lowing recommendations and testimonials from previous employers or colleagues.CHANGELINEHere is
19,3741,723.4325234889984,0.8225464820861816,CHANGELINECHANGELINEDialectical materialism is a philosophical approach that combines elements of dialectics
