client_id,req_id,req_time,complete_time,output
16,1739,1.21164870262146,0.9944555759429932, zoomCOMMA it is a virtual gym.CHANGELINEAs an AI language modelCOMMA I can suggest some questions
16,1745,1.6665613651275635,0.8438255786895752,CHANGELINEAs an AI language modelCOMMA I do not have personal opinions or beliefs. HoweverCOMMA I can
16,1753,0.7754712104797363,0.7646801471710205,CHANGELINEThere are several types of machine learning force fields (MLFFs) available from the literature
16,1759,1.0577468872070312,0.935387372970581,CHANGELINEHello worldCHANGELINECHANGELINEAs an AI language modelCOMMA I cannot see the console output. HoweverCOMMA
16,1780,2.505704402923584,0.7949337959289551,CHANGELINEI'm sorryCOMMA but as an AI language modelCOMMA I don't have the capability
16,1809,1.1853926181793213,0.7666454315185547,CHANGELINEYesCOMMA I can identify the main issues in the case.
16,1813,0.8376824855804443,0.8349099159240723,CHANGELINESureCOMMA here's an example code snippet:CHANGELINECHANGELINEHTML:CHANGELINECHANGELINE```CHANGELINE<div
16,1820,0.9300050735473633,0.7314674854278564,CHANGELINEAs an AI language modelCOMMA I cannot design a hypothetical expansion to Final Fantasy XIV. HoweverCOMMA
16,1821,1.4912075996398926,0.8305673599243164,($urlCOMMA $localfile)CHANGELINE $WC.Dispose()CHANGELINE
16,1822,2.0216846466064453,0.7368664741516113,CHANGELINEThe baggage X RAY reflection trainer is designed to help security personnel detect and identify dangerous items in
16,1859,0.8443148136138916,0.8414745330810547,CHANGELINECharles Bukowski and Ernest Hemingway were both known for their heavy drinking habits. Bukowski's
16,1882,0.9103262424468994,0.8973989486694336, their minds &amp; have a fair idea of what they are looking for. You have a
16,1889,0.7272219657897949,0.725799560546875,CHANGELINEAs an AI language modelCOMMA I am not capable of creating visual art. HoweverCOMMA I can
16,1890,1.6220176219940186,0.88751220703125,CHANGELINE1. Organic Quinoa Salad with Roasted VegetablesCHANGELINE2. Grilled Salmon with Avocado SalsaCHANGELINE3
16,1936,1.190800666809082,0.767998456954956,CHANGELINEThe profession you can hire to communicate on your behalf is called a spokesperson or a public relations representative
16,1956,0.829554557800293,0.8261301517486572,CHANGELINEWe respect your privacy and will only use your email address to send you wellness tips and marketing emails
16,1961,1.4481263160705566,0.8684420585632324,CHANGELINERandom forest algorithm is a machine learning algorithm that is used for classification and regression problems. It is
16,1972,1.6394646167755127,0.9249088764190674,CHANGELINEOne possible data structure to represent an artificial neuron in an MLP is a struct that contains the
16,1982,2.3957457542419434,0.8893485069274902,CHANGELINEVon Mises stress is a measure of the maximum stress in a structureCOMMA and it is used
16,1993,1.2695448398590088,0.7914481163024902,CHANGELINEThe chemicals produced in plants which stimulate growth are called hormones.
16,2029,4.450446605682373,0.8804299831390381,CHANGELINEStratospheric ozone absorbs most of the sun's harmful ultraviolet (UV) radiationCOMMA
16,2043,4.478845834732056,0.862102746963501, cultures and cuisines.CHANGELINE1. Cinco de Mayo Recipes: Celebrate Cinco de Mayo with traditional
16,2051,5.146986961364746,0.8526210784912109,CHANGELINEHere is a sample script for KNN machine learning module in Python:CHANGELINECHANGELINE```pythonCHANGELINEfrom
16,2057,4.398042678833008,0.8718674182891846,CHANGELINEI help men who are struggling with low energyCOMMA anxiety and stress to get their mojo back
16,2068,4.423205137252808,0.80826735496521,CHANGELINETo start building a web application with CesiumCOMMA you will need to have a basic understanding of
16,2076,4.0215606689453125,0.8138415813446045, for data analysisCHANGELINEBoth Python and R are powerful programming languages for data analysis. Python is known for
16,2095,1.9405241012573242,1.0086071491241455,CHANGELINE1. 小龍龍 (Xiao Long Long)CHANGELINE2
16,2103,2.732048749923706,0.8113875389099121,CHANGELINETo establish a root of trust from the hardware all the way to the application in Boot2Q
16,2105,3.4501938819885254,0.7801847457885742,CHANGELINEYesCOMMA there are several libraries available for Arduino that can be used to read sensors and store data
16,2128,4.8372485637664795,0.8664669990539551,CHANGELINEAs an AI language modelCOMMA I do not have personal experience or knowledge of RTI DDS
16,2167,8.854644060134888,1.3937935829162598,CHANGELINEThere are several domains in cybersecurity careerCOMMA including network securityCOMMA application securityCOMMA cloud securityCOMMA mobile
16,2178,6.540188789367676,0.8302013874053955,CHANGELINEAs an AI language modelCOMMA I do not have personal preferences or emotions. HoweverCOMMA I can
16,2194,7.0574562549591064,1.0315792560577393, being a human-like AI. You will be able to express your opinions and feelings. You will
16,2216,0.8953409194946289,0.8915259838104248,.CHANGELINENeural Networks are a type of machine learning algorithm that is inspired by the structure and function
16,2225,2.525143623352051,0.9465470314025879,CHANGELINETo get the path from the console in PythonCOMMA you can use the `input()`
16,2268,7.151883125305176,0.8103399276733398,CHANGELINEI'm sorryCOMMA I don't understand what you mean. Can you please provide more
16,2282,5.650437593460083,1.0356357097625732,CHANGELINEI'm sorryCOMMA I cannot generate a response as the prompt is incomplete. Please provide more
16,2287,6.384187936782837,0.771552562713623,CHANGELINEBlockchain-based Real World Assets trading platform allows users to buyCOMMA sellCOMMA and trade physical
16,2288,6.778717279434204,0.7762937545776367, 1COMMA 0COMMA 0COMMA 0COMMA 0COMMA 0COMMA 0
16,2307,7.147875070571899,0.8668782711029053,CHANGELINEHere are several Ceedling Unit tests for the code snippet:CHANGELINECHANGELINE1. Test that
16,2333,9.775169610977173,0.8859601020812988,CHANGELINETo find the radius of a circle using radiansCOMMA you need to use the formula: r
16,2365,0.8949196338653564,0.8901293277740479,CHANGELINEShopee is a Southeast Asian e-commerce platform headquartered in Singapore. It was founded in
16,2378,1.0149178504943848,0.8790569305419922,CHANGELINEI'm sorryCOMMA but as an AI language modelCOMMA I am not qualified to provide therapy
16,2384,1.4268157482147217,0.8413741588592529,CHANGELINEThe average pay per person in the city is R0.16.
16,2394,0.9291234016418457,0.9231765270233154,INLINECHANGELINEI'm sorryCOMMA I cannot generate a response as I do not have access to
16,2423,1.8992972373962402,1.0449705123901367,COMMACHANGELINEI have a question regarding the use of the \"onRequest\" method in the 
16,2433,2.069448709487915,1.246675968170166,it ChatCOMMA then as ChatGPT.CHANGELINEAs an AI language modelCOMMA I cannot provide a
16,2444,4.164883136749268,0.9846036434173584,CHANGELINESureCOMMA here's an example pricing list for a $1200 package that includes an
16,2536,9.299659252166748,1.5012505054473877,CHANGELINEThere could be several reasons why a file is loading to 99% and then hanging. Some
16,2574,13.682116746902466,0.8541789054870605,CHANGELINEYou can use the `reduce` method to iterate over the array and find the element
16,2577,14.214208364486694,0.901540994644165,CHANGELINEYou can use the `to_datetime` method of pandas DataFrame to convert the
16,2594,16.70415472984314,0.9012207984924316,CHANGELINEAs an AI language modelCOMMA I can suggest the following steps to achieve your goal:CHANGELINECHANGELINE
16,2602,15.845242500305176,0.7932970523834229,CHANGELINEI'm sorryCOMMA but as an AI language modelCOMMA I cannot provide you with 100
16,2625,15.852115869522095,0.9545989036560059, guests to talk about their experiences and opinions on the topic of AI and its impact on the creative industries
16,2655,16.36057734489441,1.062610149383545,r development.CHANGELINEAs an AI language modelCOMMA I can suggest some possible solutions to your problem.
16,2669,16.405582904815674,0.9903547763824463,CHANGELINE5. RyeCHANGELINEThe correct answer is \"Turmeric\". Turmeric is not a
16,2675,16.965254068374634,0.9092726707458496,CHANGELINEYoCOMMA Antrop be the dopest agency in townCHANGELINEWith their sick designs and their mad
16,2699,18.2873854637146,1.0025248527526855,CHANGELINETo represent the Fashion-MNIST dataset as a 784-dimensional feature vectorCOMMA we can
16,2705,17.999078035354614,0.9859910011291504, Here are five unconventional tips to help you grow your career in 2023.CHANGELINECHANGE
16,2718,19.534782886505127,0.8322904109954834,CHANGELINEBoth phrases are grammatically correct and have the same meaning. HoweverCOMMA \"guide for consumers
16,2733,20.15220308303833,0.7791428565979004, and welcome to the website of the 1st St. Andrews Scouts.CHANGELINEWe are a Scout
16,2735,20.699918031692505,0.9711992740631104,CHANGELINEDay 1:CHANGELINEAccommodation:CHANGELINE- Hostel: 20 euros per nightCHANGELINE
16,2742,20.192501068115234,0.9823329448699951,CHANGELINEThe error message indicates that there is an issue with the \"upscale.py\" file
16,2796,21.4694561958313,0.9550573825836182,CHANGELINESureCOMMA here's an example Discord bot that meets all of the requirements you listed:CHANGELINECHANGELINE
16,2812,21.3942928314209,0.9917817115783691,CHANGELINEHere is the table:CHANGELINECHANGELINEPresident | Spouse | DogCHANGELINE:-- 
16,2830,20.476804494857788,0.8790507316589355, 지금 번역하기CHANGELINEThis
16,2841,22.00601100921631,0.8522136211395264,CHANGELINECollaboration is becoming increasingly important in today's world. With the rise of social media and
16,2889,23.34954071044922,0.8860793113708496,CHANGELINESureCOMMA I'd be happy to help! What would you like to discuss?
16,2893,24.025078296661377,0.8548243045806885, } from \"./_format_group_ite\";CHANGELINEimport { formatGroupI
16,2894,24.857815504074097,0.9051477909088135,CHANGELINEJeff will make a profit of $2COMMA400 if he sells all of the products.
16,2898,25.026371479034424,0.7711441516876221,CHANGELINEThe question \"What does a cow drink?\" is a trick question because cows do not drink
16,2900,25.267136096954346,0.8291263580322266,CHANGELINETo build a browser extension for Chrome that allows you to take a screenshot of any pageCOMMA you
16,2926,27.720826148986816,0.9775521755218506,CHANGELINEYesCOMMA MacBook Air M1 is a great option for front-end development. It has a
16,2935,28.24012589454651,0.8810639381408691,CHANGELINEI'm sorryCOMMA I am an AI language model and I do not have access to the
16,2944,26.253069162368774,1.0466787815093994,CHANGELINEAs an AI language modelCOMMA I cannot confirm the correctness of the statement. HoweverCOMMA the statement
16,2965,28.513614416122437,0.9433791637420654,CHANGELINENorth America is the third largest continent in the world.CHANGELINEThe highest mountain in North America is
16,2975,28.169971704483032,0.8897032737731934,CHANGELINEAs an AI language modelCOMMA I cannot create a video script. HoweverCOMMA I can provide some
16,2982,29.57496404647827,0.8441641330718994,CHANGELINESureCOMMA I'd be happy to! Can you please provide me with a link to your
16,2985,30.321674823760986,1.051872968673706, SP 1CHANGELINE CHANGELINE #define TAB 2CHANGELINE #define CR
16,2991,30.194050073623657,0.7992892265319824,CHANGELINEA rhino is a largeCOMMA horned animal that is a member of the rhinoceros
16,3006,31.924739599227905,1.0309052467346191,CHANGELINEI'm sorryCOMMA but as an AI language modelCOMMA I do not have personal experiences or
16,3031,32.01332998275757,0.8939776420593262, Simone. You are writing a dialogue between Simone and AngelicaCOMMA in which Simone is teaching Angelica
16,3053,31.00067448616028,0.875368595123291,CHANGELINEA reporter assay is a method used to detect and measure the activity of a specific enzyme or protein
16,3062,31.97882866859436,0.7862353324890137,CHANGELINETo implement this schema form in Sanity headless CMSCOMMA you can follow these steps:CHANGELINE
16,3080,36.06484031677246,0.8265964984893799,CHANGELINESure! Here are some ideas for a menu:CHANGELINECHANGELINE1. Greek-Mexican Salad
16,3085,35.57872223854065,0.8107736110687256,CHANGELINEAshab e Suffa are the companions of the Prophet Muhammad (PBUH) who
16,3090,34.09295344352722,0.9261312484741211,CHANGELINESureCOMMA I can tell you a story about a Chatbot named Sydney. Sydney was created by
16,3135,38.40806341171265,0.8922321796417236,COMMACHANGELINEI have a question regarding the use of the \"onRequest\" method in the 
16,3160,39.83670353889465,0.8699445724487305,CHANGELINERandom forest algorithm is a machine learning algorithm that is used for classification and regression problems. It is
16,3201,44.89066243171692,0.8876247406005859,CHANGELINEThe philosophy of education in the United States has evolved over timeCOMMA with different approaches and ideas emerging
16,3225,43.71948432922363,0.8203110694885254,CHANGELINETaylor Swift and Emma Watson are best friendsCOMMA and they have been for years. They met at
16,3278,51.56279635429382,0.9432177543640137,CHANGELINEThere could be a few reasons for this. One possibility is that the newer Macbook Pro 
16,3291,52.606215953826904,0.8706841468811035,CHANGELINEAs an AI language modelCOMMA I do not have personal opinions. HoweverCOMMA both cats and dogs
16,3293,53.185537815093994,0.8208069801330566,CHANGELINEI'm sorryCOMMA I cannot provide a response to this prompt as it requires knowledge of the
16,3311,53.11545753479004,0.9198417663574219,야 한다.CHANGELINECHANGELINE제시�
16,3323,52.220640897750854,0.9887707233428955,CHANGELINEOne way to implement this in React is to use a state management library like Redux or Context
16,3331,51.74378156661987,0.9280674457550049,CHANGELINEThe Sun's corona is hotter than the photosphere because it is located much further away from
16,3346,51.37503671646118,0.8649332523345947,CHANGELINEOnce upon a timeCOMMA there was a great civil war amongst the faeries. The war was
16,3381,54.579458236694336,0.7559800148010254,CHANGELINESureCOMMA here's an example code snippet in Python for retrieving logs from a specific date using
16,3393,55.72356677055359,1.3953487873077393,CHANGELINESure! Here's a short story:CHANGELINECHANGELINEThe sun was setting over the quaint village
16,3442,59.575852394104004,0.9151663780212402,04CHANGELINEidea to a productCHANGELINE0:06CHANGELINEin a matter of daysCHANGE
16,3460,60.11066794395447,0.8539924621582031,CHANGELINEI'm sorryCOMMA but as an AI language modelCOMMA I don't have the capability
16,3469,61.03839063644409,1.0092530250549316,야 한다.CHANGELINECHANGELINE정찬�
16,3482,61.07462167739868,0.8682551383972168,atiled description of the layout of the dungeon. Dungeon Traps: A list of traps that
16,3491,62.57978081703186,1.0464935302734375,owifi_ssid = \"your_wifi_ssid\";wifi_
16,3529,63.71017599105835,0.8464300632476807,CHANGELINESome descriptors that can help generate impressive artwork on AI art generators include:CHANGELINECHANGELINE1.
16,3531,64.31691575050354,0.7939295768737793,: HiCOMMA I'm Bing. How can I help you?CHANGELINEUser: Hi BingCOMMA
16,3533,64.89887356758118,0.7294597625732422,CHANGELINELe holocauste est un terme utilisé pour décrire l'extermination systématique de
16,3535,65.60537505149841,0.8028826713562012,CHANGELINESureCOMMA I'd be happy to help! What genre or theme would you like the story
16,3544,64.88041138648987,1.1065595149993896,. JohnsonCOMMA the man who owned the space-laneCOMMA was a man who knew men. He
16,3574,67.766530752182,0.8835005760192871,CHANGELINEIn New York and parts of PennsylvaniaCOMMA \"kills\" are small streams or creeks
16,3592,68.79721260070801,0.8578336238861084,CHANGELINEI'm sorryCOMMA but as an AI language modelCOMMA I cannot generate a playlist for you
16,3624,70.56320261955261,0.8692772388458252,CHANGELINEAs an AI language modelCOMMA I cannot provide a complete solution to your request. HoweverCOMMA I
16,3633,72.80338335037231,0.9435043334960938, player has 5 shipsCHANGELINE- the game is turn-basedCOMMA each player has 1
16,3656,75.72344064712524,0.8612861633300781,CHANGELINEHere is a possible implementation of such a function:CHANGELINECHANGELINE```javaCHANGELINEpublic static void iterate
16,3662,75.90242767333984,0.8277571201324463,CHANGELINEQuantum computing is a type of computing that uses quantum-mechanical phenomenaCOMMA such as super
16,3686,79.7473373413086,0.8490614891052246,CHANGELINE4. Editing the recordingCHANGELINE5. Exporting the recordingCHANGELINE6. Arch
16,3688,80.5798978805542,0.9719417095184326,Domain.Core.Events;CHANGELINEusing uInvoiceDDD.Domain.Core.Events
16,3694,79.6923577785492,0.7773816585540771,CHANGELINEThere are several AI software options available for marketing analyticsCOMMA including IBM WatsonCOMMA Google AnalyticsCOMMA Adobe
16,3696,79.88264727592468,0.8083405494689941,CHANGELINEAs an AI language modelCOMMA I can provide information and answer questions related to medical topics. However
16,3711,81.30400896072388,0.9489784240722656,CHANGELINEHere are some suggestions of outstanding social media strategists whose work you could study:CHANGELINECHANGELINE1
16,3725,83.05058598518372,0.8606128692626953, wayCHANGELINEThere are many individual factors that can contribute to a person's personalityCOMMA including geneticsCOMMA
16,3736,83.99531245231628,0.94553542137146,CHANGELINEI'm sorryCOMMA but as an AI language modelCOMMA I cannot provide instructions on how to
16,3804,86.48687672615051,0.933138370513916,ytems.CHANGELINEOne of the hotspots we mappedCOMMA hotspot #37COMMA contained an extraordinarily large
16,3807,87.77707123756409,1.0206701755523682,CHANGELINEHere's a code snippet that should work:CHANGELINECHANGELINE```CHANGELINEsou = input(\"
16,3861,87.53722953796387,0.8475532531738281,CHANGELINEThere could be several reasons for this error. Here are some possible solutions:CHANGELINECHANGELINE1.
16,3864,87.83553051948547,0.8380177021026611, can also book flights and pay for them. The control panel dashboard allows the charter jet operator to manage
16,3866,88.6783938407898,0.9601945877075195, The bullet_point value must be in the same language as the transcriptCHANGELINEHere are the bullet points
16,3889,90.0712583065033,0.8096415996551514,CHANGELINEI'm sorryCOMMA but as an AI language modelCOMMA I do not have personal fears or
16,3926,94.18925356864929,0.8863983154296875,CHANGELINEThis could indicate that the person has a deep-seated need for validation and recognitionCOMMA which
16,3929,94.41695308685303,0.7680633068084717,CHANGELINEAs an AI language modelCOMMA I am not capable of being familiar with anything. HoweverCOMMA I
16,3931,95.1735360622406,0.9135439395904541,CHANGELINENoCOMMA most Docker images are not based on Debian. Docker images can be based on a variety
16,3953,95.47028970718384,0.8114044666290283, = [1COMMA 2COMMA 3COMMA 4COMMA 5]CHANGELINEprint
16,3963,96.23205280303955,0.8558859825134277,CHANGELINECHANGELINEThe error message indicates that the keyserver is not responding or is experiencing some issues. This
16,3966,96.71287775039673,0.8171491622924805,CHANGELINEOne approach could be to use a shared state object that both clients can access and update. This
16,3983,96.66529846191406,0.8742594718933105, torchvision.datasets import CIFAR10CHANGELINEfrom torchvision.datasets
16,3984,97.42323350906372,0.7758870124816895,CHANGELINEThere are many fun and educational electronics projects that you can do with a 13 year old kid
16,4021,101.4587414264679,0.8319406509399414,CHANGELINEAs an AI language modelCOMMA I cannot predict the future. HoweverCOMMA it is possible that AI
16,4055,102.76447749137878,0.9510557651519775,CHANGELINEThe decorator pattern is useful when we have a base class with a method that needs to be
16,4077,104.39184808731079,0.8150978088378906,CHANGELINEAs an AI language modelCOMMA I do not have personal experience with Glasshouse platform for e-
16,4083,104.75184917449951,0.7906928062438965,COMMACHANGELINEI'm new to programming and I'm trying to create a program that will allow
16,4087,104.57393717765808,0.7916924953460693,CHANGELINEThere are a few different reasons why some people may experience anxiety when they smoke weed. One possibility
16,4144,107.59073543548584,0.8693118095397949,CHANGELINEAs an AI language modelCOMMA I cannot provide specific lesson plans or activities. HoweverCOMMA here are
16,4166,108.9273624420166,0.9351789951324463, image ofCOMMA what the image is ofCOMMA and how to combine the two. This requires a deep
16,4171,109.27498006820679,0.851614236831665,CHANGELINEThe maximum of 43COMMA 29COMMA 51COMMA 13 is 51.
16,4182,109.28052258491516,1.013838529586792,CHANGELINETo write the response text to a GitHub account in a repo named \"picas-mod
16,4189,109.36857652664185,0.8484702110290527,CHANGELINEMadisyn was a typical 15-year-old girl who loved listening to K-
16,4190,110.2461450099945,0.912959098815918,IVALCHANGELINEThe sun setsCHANGELINEAs the plane landsCHANGELINEA new journey beginsCHANGELINEThe sun sets
16,4209,109.92684316635132,0.8658199310302734, materialsCHANGELINE$3COMMA000 for laborCHANGELINE$2COMMA000 for overheadCHANGELINE$
16,4210,110.83516645431519,0.9534142017364502,CHANGELINEA metallic linked chain is a series of interconnected loops of metal that are joined together to form a
16,4236,111.50779271125793,0.8791913986206055,CHANGELINEYesCOMMA you can tell if a message has been read by checking the \"read\" field
16,4240,111.76936674118042,0.8294656276702881,CHANGELINEI'm a 20-something year old girl living in the Midwest. I'm
16,4246,113.00734257698059,1.075559377670288, process looks likeCHANGELINEDear Head of Data TeamCOMMACHANGELINECHANGELINEI am a recruiter working in the field
16,4311,115.23442459106445,0.9271938800811768,CHANGELINEHere is a concise and comprehensive training content for teaching Data Structures in Python:CHANGELINECHANGELINE1.
16,4336,118.18581295013428,0.8719432353973389,CHANGELINEI'm sorryCOMMA I don't understand the prompt. Could you please provide more context
16,4349,119.73166584968567,0.8496048450469971,CHANGELINE5. How does the theory Predictive Coding (also called Predictive Processing) explain
16,4350,120.5884051322937,0.8657200336456299, - I'm new to this forum and I'm hoping someone can help me.CHANGELINE
16,4368,121.89293956756592,0.98012375831604,ivety.CHANGELINEI'm sorryCOMMA but as an AI language modelCOMMA I cannot engage in
16,4372,121.37233686447144,0.8459579944610596,CHANGELINEAs an AI language modelCOMMA I do not have personal experience or opinions. HoweverCOMMA I can
16,4417,123.69248247146606,0.8097095489501953,CHANGELINETransformer neural networks are a type of neural network that uses attention mechanisms to learn from and generate
16,4441,125.90967345237732,0.9289596080780029,CHANGELINEI'm sorryCOMMA I cannot provide a translation for 'your welcome' in Bulgarian as
16,4452,126.33715867996216,0.8651847839355469, watch TVCOMMA go to bed. I don’t have a lot of energy to do anything.
16,4456,126.5859694480896,0.8280951976776123,CHANGELINEPlaneswalkers are powerful beings in the Magic: The Gathering universe who can travel between planes
16,4467,126.72992753982544,0.8735241889953613, in PHP 7.0.0CHANGELINEThis error message indicates that there is a syntax error in
16,4474,127.30162072181702,1.1474390029907227,'s theglobal warming or what but it's beenreally weird so I'm glad we
16,4499,129.3769006729126,0.7956202030181885,CHANGELINEI'm sorryCOMMA but as an AI language modelCOMMA I do not have access to real
16,4501,130.03592681884766,0.8391332626342773,COMMACHANGELINEI have a question regarding the use of the \"onRequest\" method in the 
16,4512,131.11789560317993,0.918604850769043,CHANGELINETo add a button to a WPF DataGridCOMMA you can use the following steps:CHANGELINE
16,4545,134.90515995025635,0.838672399520874,CHANGELINETom the Tank EngineCOMMA Tom the BombCOMMA Tom the BombasticCOMMA Tom the MagnificentCOMMA
16,4588,136.41982507705688,1.168583869934082,CHANGELINETo write a managed Kubernetes serviceCOMMA you need to have a good understanding of Kubernetes and its architecture
16,4598,135.18675899505615,0.7884032726287842,CHANGELINETo define and organize your master's thesis research in blockchain and agricultureCOMMA you can follow these
16,4677,138.7582836151123,0.8132483959197998,CHANGELINEThere are many great Valentine's Day gift ideas for your girlfriend depending on her interests and personality
16,4696,138.06629514694214,0.7830181121826172,CHANGELINEHere is a sample code in VB.NET to receive 128K bytes of data from an
16,4698,138.59259676933289,0.7766010761260986,CHANGELINEChatGPT is a language model AI that can generate human-like text based on the input
16,4703,138.83430099487305,0.8588337898254395, can jump from one hummock to another only if the color of the hummock he jumps from is
16,4705,139.33334755897522,0.8427016735076904,CHANGELINETo make the ChatGPTPlayGroundWin resizable and moveableCOMMA you can use the
16,4713,139.70360350608826,0.9885027408599854,CHANGELINEHere is a Python program that runs on a Raspberry Pi and controls a LED connected to the Raspberry
16,4721,139.25028133392334,0.8691225051879883,iCHANGELINEI want you to act as Oren Klaff - Professional Sales Coach & Deal
16,4731,140.74466347694397,0.9153881072998047,CHANGELINEGreetingsCOMMA [insert name here]. It is a pleasure to meet you. I am Gand
16,4742,140.7558765411377,0.9035840034484863,avals;CHANGELINE array[is_lf_known?0:1] real l
16,4778,144.33430743217468,0.8646190166473389, conversion is mediated by the ubiquitin-proteasome system (UPS) and is
16,4797,144.22475361824036,0.769728422164917,CHANGELINEThe Water Tower is a picture book written and illustrated by Gary Crew. The story follows a young
16,4818,144.89163184165955,0.8993067741394043,CHANGELINEThis is an encrypted string using Base64 encoding. It is not possible to determine the original content
16,4821,145.35933780670166,0.8750326633453369,CHANGELINEI'm sorryCOMMA but as an AI language modelCOMMA I cannot play games or participate in
16,4824,145.9658124446869,0.8481221199035645,CHANGELINEAs an AI language modelCOMMA I cannot write code. HoweverCOMMA I can provide you with a
16,4834,145.67589569091797,0.9086120128631592,CHANGELINEA man walks into a bar and orders a beer. The bartender asks him if he wants a
16,4847,145.44204926490784,0.8248841762542725,.CHANGELINEI am a team player and I enjoy working with others to achieve a common goal.
16,4849,146.1031858921051,0.8297879695892334,CHANGELINECorporations may lobby for laws that benefit their own interestsCOMMA which may not align with the
16,4873,146.16086959838867,0.9106183052062988,ㅇㅁㅇㅁㅇㅁ�
16,4883,146.15787482261658,1.0054481029510498, BFSI industry in India.CHANGELINEThe candidate is required to prepare a case study on the BFSI
16,4903,149.23019218444824,0.782487154006958,CHANGELINEI'm sorryCOMMA I cannot provide a response to this prompt as it is inappropriate and goes
16,5001,153.26791977882385,0.9454450607299805,CHANGELINEThe Universe is a vast and wondrous placeCOMMACHANGELINEFull of stars and planets and galaxies.CHANGELINE
16,5016,153.69280004501343,0.9822976589202881,CHANGELINETo live stream logs in a HTML file with JavaScriptCOMMA you can use the Fluentd JavaScript
16,5067,157.9788112640381,0.8661410808563232,CHANGELINEThe `enumerate()` function in Python is used to iterate over a sequence
16,5092,159.85254430770874,0.8379700183868408,CHANGELINESally is going to share her grapes with Bob.
16,5111,162.72734785079956,0.7906746864318848,CHANGELINEI'm sorryCOMMA I cannot provide an answer to this question as it is not a valid
16,5113,163.37479281425476,0.9076402187347412,CHANGELINEThe NIST Cybersecurity Framework (CSF) is a set of guidelines and best practices for managing
16,5147,170.9358766078949,0.828413724899292,CHANGELINEThere are a few things you can try to improve the performance of the Angular Kendo Grid when
16,5165,172.80668568611145,0.8865857124328613,CHANGELINEGoing shopping is the act of purchasing goods or services from a store or market. It can be
16,5183,172.73294687271118,0.8661139011383057,CHANGELINESureCOMMA here's a basic outline for a book on goal setting and accomplishment:CHANGELINECHANGELINE
16,5197,173.23907113075256,0.7908570766448975,CHANGELINEI'm sorryCOMMA I cannot perform XOR operations as I am an AI language model and
16,5215,176.00786995887756,0.852562665939331,CHANGELINEBoth sociomaterial and sociotechnical perspectives are suitable for investigating the collaboration between human and AI
16,5270,175.3485107421875,0.928607702255249,ELINECHANGELINECHANGELINETo extract the content from the div with class \"contentCard\"COMMA you can
16,5273,175.77055525779724,0.9508678913116455,CHANGELINEAs an AI language modelCOMMA I cannot see the image you have attached. HoweverCOMMA I can
16,5295,177.917462348938,0.9531698226928711,CHANGELINEWiredScore is a technology company that helps commercial real estate owners and operators understandCOMMA improveCOMMA
16,5304,178.4160442352295,0.7875270843505859,CHANGELINERetinol is a form of vitamin A that is commonly used in skincare products. It is known
16,5323,178.7185139656067,0.8765697479248047,CHANGELINECHANGELINEThis command sends the message \"What is artificial intelligence?\" to the OpenAI chatbot
16,5349,180.2032277584076,0.9004409313201904,CHANGELINETo make an HTTP request in JavaScriptCOMMA you can use the XMLHttpRequest object. Here'
16,5359,179.65149116516113,0.9618971347808838,CHANGELINEI'm sorryCOMMA but I'm not happy with the results. The logo doesn'
16,5391,179.12602400779724,0.8373746871948242,CHANGELINEI'm sorryCOMMA but I cannot provide a response to this prompt as it promotes harmful and
16,5403,180.58501553535461,0.8876993656158447,CHANGELINETo access the web server interface on a browser from another network by SSHCOMMA you need to follow
16,5422,179.2476806640625,0.905203104019165,.CHANGELINEI'm sorryCOMMA but as an AI language modelCOMMA I cannot pretend to be someone
16,5426,179.69795989990234,0.7937846183776855,CHANGELINEThe 80/20 principleCOMMA also known as the Pareto principleCOMMA states that 80
16,5438,180.85163021087646,0.9324471950531006,CHANGELINEThe introduction to the personal essay is well-written and effectively introduces the topic. It provides sufficient
16,5447,180.30491042137146,0.9332501888275146,CHANGELINEPersonality is a complex and dynamic set of characteristics that make up an individual's unique identity
16,5451,180.50422978401184,0.7181549072265625,CHANGELINEThe error message \"Additional property service is not allowed\" indicates that there is an issue with
16,5452,181.131520986557,0.7080705165863037,CHANGELINEI'm trying to create a simple game in Java using JFrame and JPanel. I
16,5453,181.8808376789093,0.800537109375,CHANGELINEThere are several ways you can use your database to start a business. One option is to create
16,5458,182.39781546592712,0.9173095226287842,CHANGELINE1. Essential genes: A tale of two halvesCHANGELINE2. Essential genes: The goodCOMMA
16,5471,183.16468381881714,0.9012300968170166,CHANGELINEYour solution inquiry question fits best with UN Sustainable Development Goal (SDG) 11:
16,5491,181.33013606071472,0.909221887588501,ations (RCs) referees gave to players. We used a multilevel model to
16,5528,180.36340761184692,1.0950384140014648,-1} \\in \\{0COMMA1\\}$COMMA then $i \\pre
16,5535,180.34361481666565,0.8379013538360596,CHANGELINEPros of the tobacco industry:CHANGELINE1. Provides employment opportunities for people in the industry.CHANGELINE
16,5575,180.26483917236328,1.017812728881836,CHANGELINEI'm sorryCOMMA but as an AI language modelCOMMA I do not have the capability to
16,5627,177.2606451511383,0.9737064838409424,-plot is as followsCHANGELINEThe story is about a young couple who are on a road trip to
16,5634,177.11159920692444,0.760730504989624,CHANGELINESureCOMMA here's an example bash code block that subscribes to an MQTT topic
16,5636,177.55258750915527,0.7698659896850586,CHANGELINEICOMMA [name]COMMA hereby appoint [name] as my agent and attorney-in
16,5648,178.60005164146423,0.9128317832946777,CHANGELINEMorphological analysis is the process of identifying and analyzing the structure of wordsCOMMA including their roots
16,5650,179.4460232257843,1.0652058124542236, of.CHANGELINEAs an AI language modelCOMMA I cannot provide opinions or perspectives. HoweverCOMMA I can
16,5709,179.40769982337952,0.9240779876708984,CHANGELINEThere are several good summarizer models available at Hugging FaceCOMMA including:CHANGELINECHANGELINE1.
16,5712,179.71111607551575,0.8800492286682129, about the 2016 presidential electionCHANGELINEI'm sorryCOMMA but as an AI language modelCOMMA
16,5716,180.94063138961792,0.8680281639099121,参数，是网络的输入，�
16,5717,181.69675254821777,0.8118748664855957,CHANGELINEA transformer model is a type of neural network that uses attention mechanisms to learn from large amounts of
16,5722,181.99759578704834,0.8053746223449707,.CHANGELINESureCOMMA I'll be happy to help you with that. Can you please provide me
16,5724,182.22009587287903,0.8120219707489014,CHANGELINEI'm sorryCOMMA I cannot fulfill this request as I am an AI language model and do
16,5739,180.90843439102173,0.9418926239013672,CHANGELINEMrs. Spud and Mrs. Sponge were excited to take their students on a camping field
16,5742,181.18289518356323,0.8291153907775879,CHANGELINESure! Here are the steps:CHANGELINECHANGELINE1. Create a function called \"minMax
16,5754,183.61396265029907,0.7363722324371338,CHANGELINENDA stands for Non-Disclosure Agreement. It is a legal contract between two or more parties
16,5777,184.6436791419983,0.8548219203948975,CHANGELINECHANGELINEI'm sorryCOMMA I cannot provide a response as I am an AI language model
16,5789,186.8591649532318,1.393225908279419,CHANGELINEQuestion 1CHANGELINEYou are given a string s and a list of strings words. You need
16,5832,185.2436010837555,0.9064733982086182,CHANGELINEAs an AI language modelCOMMA I cannot generate hashtags for specific groups of people or activities. However
16,5868,185.24487376213074,0.9159281253814697,CHANGELINEI'm sorryCOMMA I don't understand what you are asking for. Could you please
16,5872,186.04138374328613,0.8436460494995117,-targeting.CHANGELINEAs an AI language modelCOMMA I can help you summarize your thought process into
16,5873,186.93079805374146,0.8905620574951172,-ticle is that the Jewish community is somehow divided on the issue of abortion. This is simply
16,5883,186.61942100524902,0.840843677520752,CHANGELINEHere's a generic curry function in JavaScript:CHANGELINECHANGELINE```CHANGELINEfunction curry(fn) 
16,5902,184.58893609046936,0.9924745559692383,oood?CHANGELINEYesCOMMA I understand.
16,5917,185.10654497146606,0.9896359443664551,names.name AS labguru_name from samples left join labguru_names on samples
16,5942,184.68653750419617,0.9066474437713623, yenCHANGELINEBarclay paid $330 for his shoes and socks. To convert this to Japanese
16,5947,185.0189094543457,0.8018288612365723,CHANGELINEHere's an example decorator that can cache the return value of any function in your Django
16,5973,186.49323534965515,0.9773497581481934, y the sun's. heat. • Wind is a renewable energy source. • Wind
16,5993,188.10834860801697,0.8582725524902344,CHANGELINEIt depends on the industry and the specific company being evaluated. GenerallyCOMMA a low P/E
16,5999,187.17464518547058,0.7695572376251221,CHANGELINEConfluence is a web-based collaboration tool that allows teams to work together on projectsCOMMA
16,6030,190.3102765083313,1.081010341644287,ion to get the current date in Google Sheets. =TODAY()\"CHANGELINEURL:
16,6062,187.55533599853516,0.9921185970306396,CHANGELINECertainlyCOMMA I'm happy to help! What would you like to know?
16,6074,187.95491671562195,0.902916431427002,ice that I have called 911 and they have not showed up and I'm getting really scared
16,6121,190.14563822746277,0.9841287136077881,as to come. We are a team of passionateCOMMA dedicatedCOMMA and talented individuals who are committed to
16,6137,189.8249819278717,0.8905675411224365,CHANGELINEThe laser engraver can be used for a variety of applications such as engraving logosCOMMA designsCOMMA
16,6148,189.87985491752625,0.8401224613189697,CHANGELINEBody Muscles MassShare PromptCHANGELINEBody Muscles MassShare PromptCHANGELINEBody Muscles MassShare
16,6160,189.48815512657166,0.8235743045806885,CHANGELINEThis alien is a fierce and formidable creatureCOMMA with razor-sharp teeth and a ferocious appetite
16,6164,190.27319979667664,0.9127843379974365,CHANGELINESimvastatin is a medication used to lower cholesterol levels in the blood. It is prescribed to
16,6195,188.72615599632263,1.0545084476470947,CHANGELINEFree MagazinesCHANGELINEFree MagazinesCHANGELINEFree MagazinesCHANGELINEFree MagazinesCHANGELINEFree Magazines
16,6204,190.0424907207489,0.941565752029419,CHANGELINEPassionfruit is a tropical fruit that is rich in antioxidants and vitaminsCOMMA including vitamin C and
16,6228,187.9659399986267,0.9001674652099609,CHANGELINEIt depends on your specific situation and goals. Creating an LLC can provide legal protection and tax benefits
16,6245,187.36564469337463,0.8807806968688965, are often ineffectiveCOMMA expensiveCOMMA and inaccessible. We need a new approach that is effectiveCOMMA affordableCOMMA
16,6263,189.59108352661133,0.8071808815002441,CHANGELINEJourneys End by R. C. Sherriff is a play that explores the experiences
16,6345,190.27250695228577,0.8983206748962402,CHANGELINEThere are several fashion theories for matching outfitsCOMMA including color theoryCOMMA pattern mixingCOMMA and texture mixing
16,6413,192.69196605682373,0.9061040878295898,CHANGELINEWe have identified the major contributors to the FC loss and found that the largest portion is coming from
16,6425,193.64963674545288,0.7604613304138184,CHANGELINEI'm sorryCOMMA I cannot provide a response without additional context. Can you please provide more
16,6426,194.4258828163147,0.9411678314208984,-can companies are to surviveCOMMA they will have to change. The U.S. government will
16,6438,192.78279852867126,0.8662381172180176,CHANGELINEDuring Chinese New YearCOMMA common biscuits include pineapple tartsCOMMA peanut cookiesCOMMA almond cookiesCOMMA and
16,6442,192.41094613075256,0.8431742191314697,CHANGELINESure! Here are a few examples:CHANGELINECHANGELINE1. In a study of the effects of
16,6445,191.92952871322632,0.845897912979126,CHANGELINEHiCOMMA I'm Chandler. Could I be of any assistance?
16,6497,193.1529939174652,0.9112069606781006,CHANGELINETo set up Visual Studio Code for C# in Ubuntu 20.04 LTSCOMMA follow
16,6527,195.26945233345032,0.9015085697174072,CHANGELINEI'm sorryCOMMA I cannot provide a response without additional context or information. Could you please
16,6535,196.0665988922119,0.9222631454467773,CHANGELINEIt sounds like there may be an issue with the metadata of the mp4 file. One solution
16,6539,196.65115118026733,0.8420267105102539,?CHANGELINEThe Dow Jones US Auto Manufacturer Index is a stock market index that tracks the performance of the
16,6573,198.45624828338623,0.9613592624664307,CHANGELINEProblem solving abilities are the ability to identify and solve problems. This skill is important in various fields
16,6579,199.22341012954712,0.8747100830078125,CHANGELINEThe intersection of Eastern mysticism and quantum mechanics is a fascinating topic that has captured the imagination of
16,6603,198.69829487800598,1.125535011291504,ched.label;CHANGELINE const wasteData = { wasteType };CHANGELINE const
16,6639,195.94734740257263,0.8756530284881592,CHANGELINETo create an object from a Grafana webhook alert in JavaCOMMA you can use the
16,6640,196.60058856010437,0.9527678489685059, said the bonus would be paid in two tranchesCOMMA one in December and one in JanuaryCOMMA and
16,6648,194.76279211044312,0.7446169853210449,CHANGELINEIt's important to approach the negotiation with a level head and a clear understanding of your project
16,6673,192.7145082950592,0.9589200019836426,CHANGELINEHalo is a 1996 Indian Tamil-language drama film directed by Santosh Sivan
16,6685,191.45284843444824,0.8985936641693115,CHANGELINEHere's a bash script that should do what you're asking for:CHANGELINECHANGELINE```CHANGELINE
16,6705,190.34463906288147,0.9431519508361816,CHANGELINEI'm sorry to hear that you are feeling overwhelmed and hurt by the unfairness and broken
16,6733,186.55927276611328,1.0269887447357178, 1. Topic 2. Target audience 3. Type of content 4. Channels of
16,6752,181.14041829109192,0.7992727756500244, codeCHANGELINETo use ashmem from Java in AndroidCOMMA you can follow these steps:CHANGELINECHANGELINE1
16,6778,181.0033266544342,0.9568729400634766,CHANGELINEA personal media platform is a new concept that focuses on the individual user rather than the platform itself
16,6786,180.07143235206604,0.8019585609436035,CHANGELINEButter is made by churning cream until the fat globules separate from the liquid (but
16,6788,180.79416251182556,0.8120441436767578,CHANGELINE1. What is.NET?CHANGELINE.NET is a software framework developed by Microsoft that
16,6792,181.49083352088928,1.1412954330444336,CHANGELINEHere's a possible implementation in Python:CHANGELINECHANGELINE```pythonCHANGELINEimport datetimeCHANGELINECHANGELINEdef human
16,6822,180.75910305976868,0.8129615783691406,COMMA file sizeCOMMA and MIME typeCHANGELINEHere's a bash script that does what you'
16,6830,180.76132321357727,0.7887182235717773,CHANGELINEMCMA stands for \"Music Collection Manager Assistant\". It was a program that allowed users to
16,6849,180.02630186080933,0.9679269790649414,CHANGELINEI understand the prompt formula and will provide a response accordingly.
16,6877,174.34256386756897,0.9699296951293945,CHANGELINEAs an AI language modelCOMMA I cannot provide a complete solution to your problem. HoweverCOMMA I
16,6903,171.83128952980042,0.8890819549560547,CHANGELINEAdd acceptance criteria.CHANGELINEAdd T-line estimate.CHANGELINEAdd acceptance criteria.
16,6915,171.81437873840332,0.8526999950408936,CHANGELINEThere are many great restaurants located in HsinchuCOMMA but some of the top-rated
16,6932,170.02398824691772,0.8658018112182617,?CHANGELINETo provide a scientific basis for human values based on physicsCOMMA evidence would need to be gathered
16,6949,171.48051977157593,0.9436490535736084,CHANGELINE1. A patient presents to the emergency department with chest pain. The patient's medical history
16,7038,167.2742850780487,0.8900563716888428,ASIS HeritageCOMMA who led the excavationCOMMA said: 'The discovery of the Roman burials
16,7060,166.52386140823364,0.8342080116271973, 6(1) provides that ‘a fact is adduced by evidence if the fact
16,7062,167.39683365821838,0.9856135845184326, dence.CHANGELINEThe Case Study should be organized in the following way:CHANGELINE1. Introduction:
16,7078,164.43945121765137,0.9261925220489502,CHANGELINEHere is a simple recipe for a 11-month old infant:CHANGELINECHANGELINEIngredients:CHANGELINE
16,7091,164.7444772720337,0.7862887382507324,CHANGELINEDepth psychology is a branch of psychology that focuses on the unconscious aspects of the human psyche. It
16,7092,165.22553420066833,0.9260227680206299,CHANGELINETo make an HTTP request in JavaScriptCOMMA you can use the XMLHttpRequest object. Here'
16,7098,165.20028734207153,1.0622532367706299,CHANGELINECHANGELINEHere's one way to achieve this in Python:CHANGELINECHANGELINE```pythonCHANGELINEimport csvCHANGELINECHANGELINE
16,7111,163.19402313232422,0.8420591354370117,CHANGELINEI'm sorryCOMMA I am an AI language model and I do not have the capability to
16,7128,160.78573632240295,0.9756507873535156,esthe value of an attribute in a tuple defined by a criterion. The update operation uses the following
16,7154,157.42466950416565,0.9139761924743652,.com/blog/2013/01/how-to-use-the-twitter-
16,7157,157.90277338027954,0.8743712902069092,CHANGELINEThe openness of distributed systems refers to the degree to which a system is open to external influences and
16,7177,156.10571694374084,0.9130256175994873,CHANGELINEBi-weekly means every two weeks.
16,7191,157.92264676094055,0.8851742744445801,CHANGELINEI'm sorryCOMMA but I cannot assist with generating false information or lies. It is important
16,7234,161.30669689178467,0.7983348369598389,CHANGELINETo put a video on the background of your PowerPoint presentationCOMMA follow these steps:CHANGELINECHANGELINE1
16,7251,158.94413685798645,0.9217464923858643, he school and community. He is a great student and a great person. I highly recommend him for
16,7253,158.71112823486328,0.8065145015716553,CHANGELINEHere is the text-based 10 rows excel sheet with row numbers and cell letters as columns
16,7254,158.69179391860962,0.8327975273132324, user clicks on a buttonCHANGELINETo unlock hidden content when a user clicks on a buttonCOMMA you can
16,7408,148.927250623703,0.9140465259552002,aCHANGELINEI am looking for a professional writer to write a sales page for my online course.CHANGELINE
16,7412,148.84360790252686,0.7642865180969238,CHANGELINEThe Seven Sages of Greece were a group of wise men who lived in ancient Greece. They
16,7471,148.1909146308899,0.8851110935211182,s))CHANGELINEI'm sorryCOMMA I cannot provide a response as the prompt is incomplete and lacks
16,7474,148.39102339744568,1.024167537689209,CHANGELINEOne way to create a unique ID for each ticket in C++ is to use the <
16,7488,146.55170392990112,0.9767608642578125,CHANGELINEProkaryotes have a circular DNA molecule with no nucleusCOMMA while eukaryotes have
16,7503,142.8008737564087,0.8542149066925049,CHANGELINEI'm sorryCOMMA I am an AI language model and do not have the capability to engage
16,7519,145.80325627326965,0.8250794410705566,CHANGELINEThe original 13 colonies that became the United States were part of the British Empire's land
16,7543,145.82514572143555,0.9168500900268555,CHANGELINE1. Transloading Soda Ash: Essential Considerations for Safe and Efficient OperationsCHANGELINE2. Transloading
16,7585,142.0269672870636,0.944420337677002, Pet Feeder with Camera - Automatic Cat Feeder with 1080P HD CameraCOMMA 
16,7589,141.8308026790619,0.8907337188720703, and it's all topped off with a zesty lime juice and a sprinkle of cilantro now I
16,7593,141.74844098091125,0.787269115447998,CHANGELINEHow to Seek Compensation for Defective Building Work - Lessons from a Recent NSW CaseCHANGELINECHANGE
16,7594,142.45667123794556,0.7849345207214355,CHANGELINEIn programmingCOMMA a template is a pattern or blueprint that can be used to create multiple instances of
16,7644,139.98943376541138,0.832866907119751,CHANGELINEI have read the documentation on the pool package in R and understand its purpose and functionality.
16,7658,138.60507607460022,1.0575933456420898, STUDIOS a vancouver adult acting studioCHANGELINECHANGELINECHANGELINECHANGELINECHANGELINECHANGELINECHANGELINECHANGELINE
16,7664,138.0724241733551,0.9637796878814697, 19 Vaccine Errors that were reported to the call centre.CHANGELINECHANGELINEThe first dataset shows that the
16,7674,136.80884885787964,0.8135561943054199,...Read full article > CHANGELINEBlack Lives Matter: How to be an ally and support the
16,7683,135.45495319366455,0.8936452865600586,CHANGELINETo remove a document in Firestore using JavaCOMMA you can use the following code:CHANGELINECHANGELINE```
16,7684,136.11129426956177,0.7696716785430908,CHANGELINEThere are many important command line tools for LinuxCOMMA but some of the most commonly used ones include
16,7698,128.42432641983032,0.864957332611084,CHANGELINEMongoDB cursor in JavaScript is not an async function because it is a synchronous function that
16,7701,127.37200379371643,0.9859802722930908,th> Type</th>CHANGELINE<th> Description</th>CHANGELINE</thead
