client_id,req_id,req_time,complete_time,output
16,856,0.3607633113861084,0.3495151996612549,ghe-learning. E-learning is a way of learning that is done through the internet.
16,858,0.5967690944671631,0.32452893257141113,CHANGELINEThis joke is a pun on the word 'newt'COMMA which is a type of amphib
16,865,0.3467371463775635,0.33685922622680664,CHANGELINESureCOMMA I'd be happy to help! What sections of the document would you like me
16,871,0.3803119659423828,0.32988643646240234,CHANGELINEAs an AI language modelCOMMA I do not have personal opinions or beliefs. HoweverCOMMA I can
16,922,0.30230212211608887,0.298154354095459,CHANGELINEHere are 10 examples of subtraction problems with numbers less than or equal to 10:
16,939,0.30809497833251953,0.3034994602203369,CHANGELINERegression analysis is a statistical technique used to estimate the relationship between a dependent variable and one or
16,947,0.36895155906677246,0.31948208808898926,CHANGELINESureCOMMA what kind of game would you like to play?
16,979,0.5441396236419678,0.3262622356414795,CHANGELINEI am going to trim the hedge this weekend.CHANGELINEI am going to prune the hedge
16,993,0.3428010940551758,0.33731579780578613,CHANGELINEOne possible game that could be played with a standard set of D&D dice is a dungeon
16,1005,0.3152313232421875,0.3101809024810791,CHANGELINEAs an AI language modelCOMMA I can generate poetry using algorithms and prompts. HoweverCOMMA I cannot
16,1021,0.45755910873413086,0.34728074073791504,CHANGELINEThere are a few things you can do to make a stock market project stand out to potential employers
16,1066,0.4594686031341553,0.30217647552490234,.CHANGELINEThat's great! What inspired you to create a new programming language?
16,1083,0.31322646141052246,0.3022186756134033,CHANGELINEAs an AI language modelCOMMA I do not have access to the specific business model of Breef
16,1092,0.3483562469482422,0.33904147148132324,CHANGELINESureCOMMA I'd be happy to help! Here are some ideas:CHANGELINECHANGELINE1.
16,1114,0.6249556541442871,0.32289719581604004,CHANGELINEI'm sorryCOMMA but I cannot provide a response as the prompt is incomplete and lacks context
16,1115,0.39527320861816406,0.3901340961456299,CHANGELINEI'm sorryCOMMA I don't understand the prompt. Could you please provide more context
16,1116,0.7024009227752686,0.30482006072998047,CHANGELINEStarting in the investment world can be overwhelmingCOMMA but there are a few key steps you can take
16,1134,0.28299379348754883,0.27812767028808594,CHANGELINEAs an AI language modelCOMMA I do not have personal preferences or opinions. HoweverCOMMA there are
16,1169,0.34854626655578613,0.33696579933166504,CHANGELINEAs an AI language modelCOMMA I cannot provide a complete solution to your problem. HoweverCOMMA I
16,1173,0.3048996925354004,0.29565882682800293,CHANGELINEAs an AI language modelCOMMA I cannot provide personal opinions or advice. HoweverCOMMA here are some
16,1174,0.3052864074707031,0.2899050712585449,CHANGELINEI'm sorryCOMMA I don't understand what you are asking for. Could you please
16,1197,0.3862318992614746,0.3065502643585205,CHANGELINESure! Here's a workout that should get people talking:CHANGELINECHANGELINE1. 10
16,1205,0.32064366340637207,0.318143367767334, backgroundCHANGELINETo achieve this drag and drop component in AngularCOMMA you can follow these steps:CHANGELINECHANGELINE
16,1212,0.30309057235717773,0.30005598068237305,CHANGELINEThere are several types of machine learning models in the worldCOMMA including supervised learningCOMMA unsupervised
16,1259,0.3031880855560303,0.2936513423919678,CHANGELINEAircraft wings produce lift through the principle of aerodynamics. As air flows over the wingCOMMA
16,1300,0.3126983642578125,0.3088347911834717,CHANGELINEAds can follow you from your phone to your computer through various methods such as tracking cookiesCOMMA
16,1332,0.8115589618682861,0.336118221282959,CHANGELINEI want to lose weightCHANGELINETo lose weightCOMMA you need to set a specificCOMMA measurableCOMMA
16,1389,0.8808417320251465,0.33934473991394043,CHANGELINEJerry is in a brutal defamation suit against Kermit the FrogCOMMA the DUI guy from
16,1395,0.3410930633544922,0.33474230766296387,CHANGELINEThere are several strategies to manage this scenario:CHANGELINECHANGELINE1. Use a connection pool: A
16,1444,0.46246981620788574,0.4526493549346924,CHANGELINEI'm sorryCOMMA I am an AI language model and I do not have the capability to
16,1457,0.2860386371612549,0.2810482978820801,CHANGELINEHere is a step-by-step translation process workflow:CHANGELINECHANGELINE1. Identify the source
16,1458,0.7164168357849121,0.4495666027069092,CHANGELINE1. Title for the articleCHANGELINE2. Description of the articleCHANGELINE3. Link to the
16,1490,0.394073486328125,0.3143460750579834,?CHANGELINEI'm sorryCOMMA but as an AI language modelCOMMA I don't have the
16,1547,0.7722880840301514,0.3448944091796875,CHANGELINEe4CHANGELINEI respond with d5CHANGELINEd5CHANGELINEI respond with d5CHANGELINEd
16,1570,0.7460472583770752,0.3585841655731201,CHANGELINEIt is not recommended to mix hyaluronic acid solutions of different molecular weights as it can lead to
16,1574,1.1903016567230225,0.3306128978729248,CHANGELINEAs an AI language modelCOMMA I cannot provide suggestions on what channels to have on your Discord server
16,1578,0.4256746768951416,0.3262147903442383, zoomCOMMA it is a virtual gym.CHANGELINEAs an AI language modelCOMMA I can suggest some questions
16,1590,0.35286951065063477,0.3456244468688965,CHANGELINEThere are several types of machine learning force fields (MLFFs) available from the literature
16,1594,0.43926358222961426,0.3144350051879883,CHANGELINESure thingCOMMA partner! The HTTPS stack is like a posse of cowboys riding into town
16,1609,0.7087674140930176,0.3254241943359375,CHANGELINETo fetch the status of WordPress user using GraphQL in Next.js 13 project using Type
16,1662,0.525226354598999,0.330059289932251,CHANGELINEHere's a sample Node.js script that calls a REST API every 5 minutes and
16,1685,0.31125402450561523,0.30213356018066406,CHANGELINEHere is a code snippet in Python that reads a jpg file and counts the number of pixels
16,1699,0.5635263919830322,0.39996886253356934, \\CHANGELINEcout << \"stop printing yourself idiot\";CHANGELINECHANGELINE#
16,1716,0.4001774787902832,0.39034128189086914,itonCOMMA you should provide suggestions for any additional information or experiences that could be added to the resume to
16,1721,0.5816466808319092,0.310178279876709,CHANGELINEThe Titanic is a great movie for people who enjoy watching a boat sink for 3 hours.
16,1733,0.9596214294433594,0.3152961730957031,CHANGELINEAs an AI language modelCOMMA I do not have personal opinions or beliefs. HoweverCOMMA here are
16,1743,0.614748477935791,0.3393681049346924,CHANGELINEThe profession you can hire to communicate on your behalf is called a spokesperson or a public relations representative
16,1753,0.3228721618652344,0.3157949447631836,CHANGELINEIf we could measure everything in the brainCOMMA we would have a much better understanding of how learning
16,1780,0.3399994373321533,0.33713626861572266,CHANGELINEVon Mises stress is a measure of the stress distribution in a material or structure. It is
16,1803,0.3023688793182373,0.297015905380249,CHANGELINEInorder traversal is a traversal of a binary search tree where the nodes are visited in
16,1806,0.3346126079559326,0.3315873146057129,CHANGELINEYesCOMMA you can use the following command to show the document creation date in Obsidian:CHANGELINECHANGELINE
16,1808,0.32088494300842285,0.3126790523529053,CHANGELINEIt depends on the specific market and demand for crochet hooks during that time of year. Some people
16,1847,2.027355194091797,0.3634190559387207,CHANGELINEShell is a command-line interpreter that allows you to interact with the operating system. It is
16,1857,0.5830457210540771,0.3040480613708496,CHANGELINEA pull request is a request made by a developer to merge changes made in a branch of a
16,1871,0.3780808448791504,0.3665595054626465,CHANGELINETo create a NestJS Guard using your AuthenticationServiceCOMMA you can follow these steps:CHANGELINECHANGELINE
16,1930,0.31946396827697754,0.3139681816101074,CHANGELINETo start learning GCPCOMMA you can follow these steps:CHANGELINECHANGELINE1. Sign up for
16,1942,1.1668436527252197,0.32327890396118164,CHANGELINEThe onryo's name was Akiko. She was a beautiful young woman who lived
16,1950,0.3726322650909424,0.3696930408477783,?CHANGELINEFor this systemCOMMA facial recognition techniques such as deep learning algorithms and computer vision can be used
16,1981,0.32419323921203613,0.32143259048461914,CHANGELINEAs an AI language modelCOMMA I don't have a sense of self or emotions. However
16,1994,1.4130756855010986,0.392514705657959,it must be a tweet that introduces the text and the author.CHANGELINE- The last tweet must
16,1997,0.3181312084197998,0.3092935085296631,CHANGELINEAllowing users to pick which columns are displayed in an HTML table provides several benefits. FirstlyCOMMA
16,1998,0.6860337257385254,0.4038832187652588, all data processing and deliverables.CHANGELINEAs an AI language modelCOMMA I cannot provide a proposal for
16,2004,0.30994534492492676,0.3048369884490967,CHANGELINEThe Taylor-Johnson Temperament Analysis (TJTA) is a personality assessment tool that
16,2009,0.30667734146118164,0.29612088203430176,CHANGELINECHANGELINETo get the value of the \"name\" attribute of the \"input\" element
16,2013,0.374448299407959,0.3640711307525635,CHANGELINE1. The importance of education in shaping a person's futureCHANGELINE2. The benefits of
16,2031,0.36239051818847656,0.3536498546600342,CHANGELINEAs an AI language modelCOMMA I understand the concerns of the group members. HoweverCOMMA I believe
16,2035,0.6341571807861328,0.32117795944213867,CHANGELINEIt's important to remember that everyone has value and purposeCOMMA even if it may not be
16,2049,0.4775519371032715,0.31231212615966797,CHANGELINEThe initial breath of a SAAS or microsaas application is the first impression that users have
16,2078,0.31707310676574707,0.3141906261444092,CHANGELINEI'm sorryCOMMA I cannot provide an accurate response without additional context or information.
16,2087,0.3135802745819092,0.3116614818572998,CHANGELINEI'm sorryCOMMA but as an AI language modelCOMMA I am not qualified to provide therapy
16,2095,0.6265044212341309,0.31404590606689453,CHANGELINEI'm sorryCOMMA I cannot provide a specific answer without additional context or information. Can you
16,2128,0.4387996196746826,0.31021857261657715,CHANGELINEI'm sorryCOMMA I am an AI language model and I do not have the capability to
16,2143,0.3476381301879883,0.34122371673583984,CHANGELINEHere's a Python solution:CHANGELINECHANGELINE```pythonCHANGELINEdef intersection(list1COMMA list2
16,2166,0.3482530117034912,0.3422563076019287,CHANGELINEAs an AI language modelCOMMA I can provide you with some suggestions on how to improve your writing
16,2172,0.4993114471435547,0.3186335563659668,CHANGELINEIt is difficult to make a recommendation without more information about the specific disease and the individuals affected.
16,2173,0.7649204730987549,0.3078620433807373,CHANGELINEI'm sorryCOMMA but as an AI language modelCOMMA I don't have personal preferences
16,2196,0.6547152996063232,0.35509753227233887,_ID = $SENT_ONE_MSI_IDCHANGELINE$GROUP_
16,2200,1.3140196800231934,0.3127100467681885,CHANGELINEAs an AI language modelCOMMA I don't have personal experience with GitHub accountsCOMMA but I
16,2201,1.5438652038574219,0.3079996109008789,CHANGELINETo get the bounding box of a deeply nested SVG objectCOMMA you can use the `
16,2236,0.47134900093078613,0.30469560623168945,CHANGELINEOpposition politics can lead to instability and social crisis because it often involves a struggle for power between
16,2239,1.153703212738037,0.33589935302734375,CHANGELINEAs an AI language modelCOMMA I cannot provide an opinion or a suggestion. HoweverCOMMA I can
16,2240,1.2864744663238525,0.3470168113708496,anger Things: The Game - PS4CHANGELINECHANGELINEThe Turtle Beach Stealth 600 Gen
16,2266,0.4564797878265381,0.32102251052856445,CHANGELINEAs an AI language modelCOMMA I cannot predict the future with certainty. HoweverCOMMA some of the
16,2275,0.3970980644226074,0.3242313861846924,CHANGELINEThe Cuban Missile Crisis began in 1962 when the Soviet Union placed nuclear missiles in Cuba
16,2311,0.4265294075012207,0.41447925567626953, course will provide you with a solid foundation that you can build upon as you continue to learn and experiment
16,2323,0.31248974800109863,0.3073439598083496,CHANGELINEQuantum computing is a type of computing that uses quantum-mechanical phenomenaCOMMA such as super
16,2349,0.6731200218200684,0.32992982864379883,CHANGELINEHere is a function that calculates and returns the area of a circle given its radius:CHANGELINECHANGELINE```
16,2354,0.4084055423736572,0.4058542251586914,CHANGELINEThe essay 'A Debate Over Identity and Race AsksCOMMA Are African-Americans '
16,2364,0.3034961223602295,0.2946014404296875,COMMACHANGELINEI have a question regarding the use of the \"onRequest\" method in the 
16,2378,0.317460298538208,0.30671000480651855,CHANGELINEIt depends on your shipping needs and the current market conditions. If you have consistent shipping needs and
16,2394,0.3203465938568115,0.31593751907348633,CHANGELINEThe new champion in League of Legends would be named Clumsy. Clumsy would have
16,2397,0.34508562088012695,0.3397703170776367,CHANGELINEAs a first year mechanical engineering student at Georgia TechCOMMA I understand the importance of safety and the
16,2410,0.3244180679321289,0.31293749809265137,CHANGELINEI'm sorryCOMMA but as an AI language modelCOMMA I cannot play games or interact with
16,2430,0.3245253562927246,0.3181278705596924,CHANGELINE1. Exercise regularly to maintain a healthy body and mind. CHANGELINE2. Eat a balanced
16,2439,0.7130835056304932,0.4094963073730469,.CHANGELINEI am looking for a product that is a new type of shoe that is comfortableCOMMA stylish
16,2515,0.31559014320373535,0.30779123306274414,CHANGELINEI'm sorryCOMMA I cannot provide an accurate response without additional context. Could you please provide
16,2520,0.326157808303833,0.32170677185058594,CHANGELINEThere could be several reasons for a delay in publishing on TerminalFour. Some possible causes include:
16,2540,0.7652201652526855,0.30249571800231934,\\n\\nA Faraday cage is a structure made of conductive material that blocks electromagnetic fields
16,2555,0.35660409927368164,0.3445565700531006,.CHANGELINEI'm sorryCOMMA but as an AI language modelCOMMA I cannot pretend to be D
16,2563,0.3237013816833496,0.31452250480651855,CHANGELINETo cook a T-bone steak in the ovenCOMMA preheat the oven to 400°
16,2570,1.0231564044952393,0.3062918186187744,CHANGELINETo use HuggingFace seq2seq trainer with multiple GPUsCOMMA you can use the `
16,2573,0.4835200309753418,0.44712305068969727, are SimoneCOMMA a fictional language model. You are teaching AngelicaCOMMA another fictional language modelCOMMA how
16,2578,0.6412196159362793,0.3054821491241455,CHANGELINEQuercetin and rutin are two flavonoids that are commonly found in fruits and
16,2598,0.35652875900268555,0.3507978916168213,CHANGELINEAs an AI language modelCOMMA I can suggest some ideas to enhance your app:CHANGELINECHANGELINE1
16,2659,0.49541592597961426,0.35131263732910156,CHANGELINEIn the year 2120COMMA Base 9 is a thriving community of scientists and researchersCOMMA
16,2683,0.3255462646484375,0.31746864318847656, and tools to create a website that is not only visually appealing but also user-friendly.CHANGELINEWe
16,2714,0.31261730194091797,0.3037292957305908,CHANGELINEThere are many places where people in Germany can buy interior design products. Some popular options include furniture
16,2739,0.3426249027252197,0.3200185298919678,CHANGELINEAs an AI language modelCOMMA I cannot provide a UX case study about the Chime app.
16,2743,0.31917476654052734,0.31593823432922363,CHANGELINEAs an AI language modelCOMMA I can provide you with the following steps to implement a Nodejs
16,2750,0.33026766777038574,0.3274576663970947,CHANGELINEThe philosophy of education in the United States has evolved over timeCOMMA with different approaches and ideas emerging
16,2759,0.40671253204345703,0.3975203037261963, of cells to relieve all cystic fibrosis symptomsCOMMA the following steps would need to be taken:CHANGELINE
16,2762,0.3150029182434082,0.3072519302368164,CHANGELINEI'm sorryCOMMA but as an AI language modelCOMMA I cannot perform web searches or provide
16,2769,1.1055412292480469,0.32356786727905273,iourial science and the company's business model to create the plan.CHANGELINEAs an AI
16,2771,0.8536369800567627,0.329357385635376,CHANGELINESure! Here are some former animation studio artists who have lots of instructional videos online:CHANGELINECHANGELINE
16,2800,0.3546724319458008,0.34470462799072266,CHANGELINEAs an AI language modelCOMMA I cannot provide opinions or suggestions. HoweverCOMMA here are some possible
16,2816,0.611717700958252,0.3121364116668701,CHANGELINEReact Hooks are a set of functions that allow you to write functional components in React. They
16,2822,0.3616046905517578,0.35341835021972656,CHANGELINEThe European Union's energy ministers have reached a conclusion on the natural gas price capCOMMA which
16,2833,0.36818599700927734,0.3564291000366211,one had a safe and enjoyable holiday season.CHANGELINECHANGELINEWe are excited to announce that
16,2900,0.3985593318939209,0.3202033042907715,CHANGELINETo send the status of an electronic speed controller (ESC) to a ground station using
16,2918,0.707449197769165,0.34775733947753906, <code>ls</code> - List the contents of a directory <code>
16,2957,0.3242988586425781,0.31674814224243164,CHANGELINESure! What kind of character do you have in mind? A brave warriorCOMMA a cunning rogue
16,2971,0.319948673248291,0.31194210052490234,CHANGELINEAs an AI language modelCOMMA I cannot create topics for your YouTube channel video. HoweverCOMMA here
16,2977,0.34607648849487305,0.3391227722167969,.CHANGELINEI'm sorryCOMMA but as an AI language modelCOMMA I cannot pretend to be D
16,2979,0.35526347160339355,0.35194897651672363,ocks.gethostbyname(server_name)COMMA server_port))CHANGELINE# print a
16,2987,0.3496699333190918,0.3419148921966553,CHANGELINEI'm sorryCOMMA but as an AI language modelCOMMA I am not capable of running a
16,3009,0.32551121711730957,0.31781816482543945,CHANGELINEAs an AI language modelCOMMA I do not have access to the specific interview questions that you may
16,3100,0.36249566078186035,0.3539581298828125,CHANGELINEThe three largest shareholders own 25% of the stockCOMMA which is 0.25 
16,3106,0.36424899101257324,0.35765767097473145,CHANGELINECHANGELINEHere's one possible solution using the `matplotlib` library in Python:
16,3126,0.3192262649536133,0.31253838539123535,CHANGELINEThe investment thesis for providing equity capital to bitcoin mining and high-speed data facilities is that the
16,3130,0.3808414936065674,0.374312162399292,.CHANGELINEWhat is the history of WhiteRidge? How did it come to be and what events
16,3237,0.36550164222717285,0.3541383743286133,CHANGELINEAs an AI language modelCOMMA I cannot predict the exact reactions of countries in the world. However
16,3281,0.5778260231018066,0.3384997844696045,CHANGELINESome common terms you may encounter in working memory research include:CHANGELINE- Working memory capacityCHANGELINE-
16,3284,0.30492186546325684,0.30118608474731445,CHANGELINENepal is a landlocked country in South Asia. It is bordered by India to
