client_id,req_id,req_time,complete_time,output
16,1712,1.1822278499603271,0.33754944801330566, zoomCOMMA it is a virtual gym.CHANGELINEAs an AI language modelCOMMA I can suggest some questions
16,1717,1.4599497318267822,0.35811710357666016,CHANGELINEAs an AI language modelCOMMA I cannot provide an interview question. HoweverCOMMA here are some points
16,1723,0.33759498596191406,0.3081657886505127,CHANGELINEThere are several types of machine learning force fields (MLFFs) available from the literature
16,1729,0.53928542137146,0.3208000659942627,CHANGELINE<pre><code>{Hello world}CHANGELINE</code></pre>
16,1746,0.3112821578979492,0.30102038383483887,CHANGELINEI'm sorryCOMMA but as an AI language modelCOMMA I don't have the capability
16,1772,0.4180285930633545,0.31267571449279785,CHANGELINEYesCOMMA I can identify the main issues in the case.
16,1775,0.3326430320739746,0.3270115852355957,CHANGELINESureCOMMA here's an example HTML and CSS code for a responsive grid layout with a collaps
16,1781,0.3263974189758301,0.3021583557128906,CHANGELINEAs an AI language modelCOMMA I cannot design a hypothetical expansion to Final Fantasy XIV. HoweverCOMMA
16,1782,0.42546844482421875,0.36472368240356445,($urlCOMMA $localfile)CHANGELINE $WC.Dispose()CHANGELINE
16,1783,0.5220890045166016,0.30498671531677246,CHANGELINEThe baggage X RAY reflection trainer is designed to help security personnel detect and identify dangerous items in
16,1817,0.34418511390686035,0.3157329559326172,CHANGELINECharles Bukowski and Ernest Hemingway were both known for their heavy drinking habits. Bukowski's
16,1835,0.3473520278930664,0.3348519802093506, their minds &amp; have a fair idea of what they are looking for. You have a
16,1842,0.44424962997436523,0.29788875579833984,CHANGELINEAs an AI language modelCOMMA I am not capable of creating visual art. HoweverCOMMA I can
16,1843,0.7510030269622803,0.30760788917541504,CHANGELINE1. Organic Quinoa Salad with Roasted VegetablesCHANGELINE2. Grilled Salmon with Avocado SalsaCHANGELINE3
16,1883,0.7554769515991211,0.33028078079223633,CHANGELINEThe profession you can hire to communicate on your behalf is called a spokesperson or a public relations representative
16,1901,0.37879443168640137,0.3670921325683594,CHANGELINEWe value your privacy and will only use your email address to send you your personal recommendation and free
16,1906,1.1988449096679688,0.30065464973449707,CHANGELINERandom forest algorithm is a machine learning algorithm that is used for classification and regression problems. It is
16,1917,1.5136864185333252,0.3117680549621582,CHANGELINEOne possible data structure to represent an artificial neuron in an MLP is a struct that contains the
16,1927,2.2337470054626465,0.3294637203216553,CHANGELINEVon Mises stress is a measure of the stress distribution in a material or structure. It is
16,1937,0.6170423030853271,0.2987229824066162,CHANGELINEThe chemicals produced in plants which stimulate growth are called hormones.
16,1967,1.6973531246185303,0.3131852149963379,CHANGELINEStratospheric ozone absorbs most of the harmful ultraviolet (UV) radiation from the sunCOMMA
16,1980,1.5798344612121582,0.33118557929992676, cultures and cuisines.CHANGELINE1. Cinco de Mayo recipes: Celebrate Cinco de Mayo with traditional
16,1987,2.0514490604400635,0.30865979194641113,CHANGELINEHere is a sample script for KNN machine learning module in Python:CHANGELINECHANGELINE```pythonCHANGELINEfrom
16,1993,0.9838442802429199,0.30364322662353516,CHANGELINEI help men who are struggling with low energyCOMMA anxiety and stress to regain their energyCOMMA confidence
16,2002,0.625251054763794,0.30237698554992676,CHANGELINETo start building a web application with CesiumCOMMA you will need to have a basic understanding of
16,2010,0.3080916404724121,0.3038461208343506, for data analysisCHANGELINEBoth Python and R are great tools for data analysis. Python is known for its
16,2025,0.3636653423309326,0.31034064292907715,CHANGELINE1. 小小小小小小小小小小小小小小小小
16,2033,1.0718390941619873,0.3620262145996094,CHANGELINETo establish a root of trust from the hardware all the way to the application in Boot2Q
16,2035,1.487769603729248,0.3056528568267822,CHANGELINEYesCOMMA there are several libraries available for Arduino that can be used to read sensors and store data
16,2057,2.2784738540649414,0.4142422676086426,CHANGELINEAs an AI language modelCOMMA I do not have personal experience or knowledge of RTI DDS
16,2092,1.9566023349761963,0.30557751655578613,CHANGELINEThere are several domains in cybersecurity careerCOMMA including network securityCOMMA application securityCOMMA cloud securityCOMMA mobile
16,2102,0.8284201622009277,0.42577338218688965,CHANGELINEAs an AI language modelCOMMA I do not have personal preferences or emotions. HoweverCOMMA I can
16,2116,0.5027070045471191,0.33786535263061523, being a human-like AI. You will be able to express your opinions and feelings. You will
16,2135,0.5527536869049072,0.30555224418640137,.CHANGELINENeural Networks are a type of machine learning algorithm that is inspired by the structure and function
16,2143,1.1874046325683594,0.29805707931518555,CHANGELINETo get the path from the console in PythonCOMMA you can use the `input()`
16,2174,0.31151652336120605,0.30764341354370117,CHANGELINEI'm sorryCOMMA I don't understand what you are asking for. Can you please
16,2187,0.3208892345428467,0.3174307346343994,CHANGELINEI'm sorryCOMMA I cannot generate a response as the prompt is incomplete. Please provide more
16,2190,0.30623555183410645,0.29839539527893066,CHANGELINEBlockchain-based Real World Assets trading platform allows users to buyCOMMA sellCOMMA and trade physical
16,2191,0.28976011276245117,0.2875981330871582, 0COMMA0COMMA0COMMA0COMMA0COMMA0COMMA0COMMA0COMMA0COMMA0
16,2209,0.3382108211517334,0.3284118175506592,CHANGELINEHere are several Ceedling Unit tests for the code snippet:CHANGELINECHANGELINE1. Test that
16,2232,0.37140464782714844,0.30767297744750977,CHANGELINETo find the radius of a circle using radiansCOMMA you need to use the formula: r
16,2262,0.38964080810546875,0.3100419044494629,CHANGELINEShopee is a Southeast Asian e-commerce platform headquartered in Singapore. It was founded in
16,2273,0.8589992523193359,0.29421305656433105,CHANGELINEI'm sorryCOMMA but as an AI language modelCOMMA I am not qualified to provide therapy
16,2278,0.9010388851165771,0.3199152946472168,CHANGELINEThe average pay per person in the city is R16.00.
16,2288,0.559018611907959,0.3334157466888428,INLINE CHANGELINECHANGELINEI'm sorryCOMMA I cannot fulfill this prompt as it requires access to
16,2308,0.27956175804138184,0.27176380157470703,COMMACHANGELINEI have a question regarding the use of the \"onRequest\" method in the 
16,2317,0.322415828704834,0.31890106201171875,it ChatCOMMA then as ChatGPT.CHANGELINEAs an AI language modelCOMMA I cannot provide a
16,2325,0.7906136512756348,0.2881004810333252,CHANGELINESureCOMMA here's an example pricing list for a video production project that costs $120
16,2400,0.34033679962158203,0.3188486099243164,CHANGELINEThere could be several reasons why a file is loading to 99% and then hanging. Some
16,2429,1.6139397621154785,0.312838077545166,CHANGELINEYou can use the `reduce` method to iterate over the array and find the element
16,2432,1.9927632808685303,0.2942681312561035,CHANGELINEYou can use the `to_datetime` method of pandas to convert the column to
16,2446,2.053095579147339,0.3305835723876953,CHANGELINEAs an AI language modelCOMMA I can suggest the following steps to achieve your goal:CHANGELINECHANGELINE
16,2452,0.7361288070678711,0.29367613792419434,CHANGELINEI'm sorryCOMMA but as an AI language modelCOMMA I cannot provide you with any ideas
16,2469,0.41695237159729004,0.3295314311981201, guests to talk about their experiences and opinions on the topic of AI and its impact on the creative industries
16,2493,1.4498438835144043,0.34055566787719727,r development.CHANGELINEAs an AI language modelCOMMA I can suggest some possible solutions to your problem.
16,2505,1.346602201461792,0.2894272804260254,CHANGELINE5. RyeCHANGELINEThe correct answer is \"Turmeric\". Turmeric is not a
16,2510,0.7814216613769531,0.27984070777893066,CHANGELINEYoCOMMA Antrop be the dopest agency in townCHANGELINEWe be killin’ it with
16,2531,1.0228662490844727,0.306027889251709,CHANGELINETo represent the Fashion-MNIST dataset as a 784-dimensional feature vectorCOMMA we can
16,2535,0.32048916816711426,0.3142368793487549, Here are five unconventional tips to help you grow your career in 2023.CHANGELINECHANGE
16,2548,1.9437239170074463,0.28051090240478516,CHANGELINEBoth phrases are grammatically correct and have the same meaning. HoweverCOMMA \"guide for consumers
16,2562,1.7239487171173096,0.29415225982666016, and welcome to the 2018-2019 school year!CHANGELINEMy name is Mrs. K
16,2564,2.0007681846618652,0.32901883125305176,CHANGELINEDay 1: Arrival and OrientationCHANGELINEAccommodation: 50 eurosCHANGELINEFood: 20
16,2567,1.199770450592041,0.36455297470092773,CHANGELINEThe error message indicates that there is an issue with the \"upscale.py\" file
16,2606,0.7056934833526611,0.32296299934387207,CHANGELINESureCOMMA here's an example Discord bot in discord.js v14 that meets all of
16,2619,1.2144455909729004,0.3223731517791748,CHANGELINEHere is the table:CHANGELINECHANGELINEPresident | Spouse | DogCHANGELINE:--- 
16,2634,0.3373265266418457,0.3326387405395508,CHANGELINEThis article discusses the importance of having a strong brand identity and how it can help businesses stand out
16,2643,1.2586679458618164,0.30182814598083496,CHANGELINECollaboration is becoming increasingly important in today's world. With the rise of social media and
16,2678,0.6338009834289551,0.2984323501586914,CHANGELINESureCOMMA I'd be happy to help! What would you like to discuss?
16,2682,1.2481253147125244,0.3416459560394287, } from \"./_format_group_ite\";CHANGELINEimport { formatGroupI
16,2683,1.4721591472625732,0.29192137718200684,CHANGELINEJeff will make a profit of $2COMMA000 if he sells all of the products.
16,2687,1.7882134914398193,0.2786905765533447,CHANGELINEThe question \"What a cow drink?\" is a trick question because cows do not drink water
16,2688,1.4746487140655518,0.2798900604248047,CHANGELINETo build a browser extension for Chrome that allows you to take a screenshot of any pageCOMMA you
16,2707,1.4782652854919434,0.2772085666656494,CHANGELINEYesCOMMA MacBook Air M1 is a great option for front-end development. It has a
16,2715,1.3351259231567383,0.27560997009277344,CHANGELINEI'm sorryCOMMA I am an AI language model and I do not have access to the
16,2721,0.33841872215270996,0.3292679786682129,CHANGELINEAs an AI language modelCOMMA I cannot confirm the correctness of the statement. HoweverCOMMA the statement
16,2736,0.5433690547943115,0.28095364570617676,CHANGELINEHere are some simple fun facts about North America for kids ages 4-8:CHANGELINECHANGELINE
16,2744,0.29761838912963867,0.280548095703125,CHANGELINEIn today's political landscapeCOMMA misinformation and fake news have become powerful tools for those seeking to
16,2751,1.4678807258605957,0.3023552894592285,CHANGELINESureCOMMA I'd be happy to give you feedback on your story. Can you please provide
16,2754,1.6076810359954834,0.351123571395874, SP 1CHANGELINE CHANGELINE #define TAB 2CHANGELINE #define CR
16,2759,1.7018179893493652,0.3058898448944092,CHANGELINEA rhino is a largeCOMMA horned mammal that is native to Africa and Asia.
16,2772,2.4273366928100586,0.3059535026550293,CHANGELINEI'm sorryCOMMA but as an AI language modelCOMMA I don't have personal experiences
16,2793,2.1599106788635254,0.3360910415649414, SimoneCOMMA a fictional language model. You are writing a dialogue between Simone and AngelicaCOMMA where Simone
16,2812,0.6327831745147705,0.3039219379425049,CHANGELINEReporter assay is a technique used in molecular biology to detect the presence of a specific DNA sequence
16,2820,1.1185238361358643,0.34594273567199707,CHANGELINETo implement this schema form in Sanity headless CMSCOMMA you can follow these steps:CHANGELINE
16,2835,2.0227601528167725,0.29685235023498535,CHANGELINESure! Here's a sample menu:CHANGELINECHANGELINE1. Greek Nachos: Pita
16,2840,1.6453311443328857,0.3014500141143799,CHANGELINEAshab e Suffa are the companions of the Prophet Muhammad (PBUH) who
16,2843,0.35489940643310547,0.3439290523529053,CHANGELINESureCOMMA I can tell you a story about a Chatbot named Sydney. Sydney was created by
16,2884,1.0698835849761963,0.30238962173461914,COMMACHANGELINEI have a question regarding the use of the \"onRequest\" method in the 
16,2907,1.5459823608398438,0.27625226974487305,CHANGELINERandom forest algorithm is a machine learning algorithm that is used for classification and regression problems. It is
16,2941,3.2373313903808594,0.2865450382232666,CHANGELINEThe philosophy of education in the United States has evolved over timeCOMMA with different approaches and ideas emerging
16,2962,0.9165337085723877,0.3316216468811035,CHANGELINETaylor Swift and Emma Watson are best friendsCOMMA and they have been for years. They met at
16,3008,4.876884460449219,0.3225572109222412,CHANGELINEThere could be several reasons why your eyes are hurting when using your Macbook Pro 16\"
16,3018,5.059027671813965,0.3049173355102539,CHANGELINEAs an AI language modelCOMMA I do not have personal opinions or emotions. HoweverCOMMA both cats
16,3020,5.20908260345459,0.29177403450012207,CHANGELINEI'm sorryCOMMA I cannot provide a response to this prompt as it is incomplete and lacks
16,3034,4.309821128845215,0.4006953239440918,야 한다.CHANGELINECHANGELINE아이스 �
16,3043,2.8451602458953857,0.3094172477722168,CHANGELINEOne way to implement this in React is to use a state management library like Redux or Context
16,3049,2.6754045486450195,0.2966616153717041,CHANGELINEThe Sun's corona is hotter than the photosphere because it is composed of plasmaCOMMA which
16,3060,1.1185109615325928,0.2982149124145508,CHANGELINEOnce upon a timeCOMMA there was a great civil war amongst the faeries. The war was
16,3091,1.8126602172851562,0.2990565299987793,CHANGELINESureCOMMA here's an example code snippet in Python for retrieving logs from a specific date using
16,3101,1.5700953006744385,0.28737497329711914,CHANGELINESure! Here's a short story:CHANGELINECHANGELINEThe sun was setting over the quaint village
16,3142,1.3374402523040771,0.318495512008667,04CHANGELINEidea to a productCHANGELINE0:06CHANGELINEin a matter of daysCHANGE
16,3156,2.0647969245910645,0.4394371509552002,CHANGELINEI'm sorryCOMMA but as an AI language modelCOMMA I don't have the capability
16,3163,2.2660367488861084,0.3260505199432373,야 한다.CHANGELINE정찬호
16,3174,2.2440333366394043,0.3398265838623047,atiled description of the layout of the dungeon. Dungeon Traps: A list of traps that
16,3183,2.843583106994629,0.3468973636627197,owifi_ssid = \"your_wifi_ssid\";wifi_
16,3211,2.7123188972473145,0.32260560989379883,CHANGELINESome descriptors that can help generate impressive artwork on AI art generators include:CHANGELINECHANGELINE1.
16,3213,2.9608099460601807,0.3046107292175293,: HiCOMMA I'm Bing. How can I help you?CHANGELINEUser: Hi BingCOMMA
16,3215,3.119615316390991,0.30153822898864746,CHANGELINELe holocauste est un terme utilisé pour décrire l'extermination systématique de
16,3217,3.4971351623535156,0.30008769035339355,CHANGELINESureCOMMA I'd be happy to help! What kind of story do you have in mind
16,3225,2.457026243209839,0.3441314697265625,. JohnsonCOMMA the bartenderCOMMA knew better. He knew that the two of them were the biggest suck
16,3247,3.149899959564209,0.3192429542541504,CHANGELINEIn New York and parts of PennsylvaniaCOMMA \"kills\" are small streams or creeks
16,3261,3.2959909439086914,0.329132080078125,.CHANGELINESureCOMMA I can do that! What's the song you want me to use as
16,3288,3.317267656326294,0.32857680320739746,CHANGELINEAs an AI language modelCOMMA I cannot provide a complete solution to your request. HoweverCOMMA I
16,3297,4.242084741592407,0.3282339572906494, player has 5 shipsCHANGELINE- the game is turn-basedCHANGELINE- the game is
16,3317,4.402767658233643,0.32262253761291504,CHANGELINEHere is an example function that does what you described:CHANGELINECHANGELINE```CHANGELINEpublic static void iterate
16,3321,4.773287296295166,0.30423808097839355,CHANGELINEQuantum computing is a type of computing that uses quantum-mechanical phenomenaCOMMA such as super
16,3342,7.7583701610565186,0.3362271785736084,CHANGELINE4. Editing the recordingCHANGELINE5. Saving and sharing the recordingCHANGELINE6.
16,3343,7.867707014083862,0.3417041301727295,Domain.Aggregates;CHANGELINEusing uInvoiceDDD.Domain.Aggregates
16,3348,6.991081953048706,0.3100779056549072,CHANGELINEThere are several AI software options available for marketing analyticsCOMMA including IBM WatsonCOMMA Google AnalyticsCOMMA and
16,3350,6.860103607177734,0.30325865745544434,CHANGELINEAs an AI language modelCOMMA I can provide information and answer questions related to medical topics. However
16,3363,8.960591316223145,0.5905795097351074,CHANGELINEHere are some suggestions of outstanding strategists whose work you could study:CHANGELINECHANGELINE1. Gary
16,3375,11.511459112167358,0.36138176918029785, wayCHANGELINEThere are many individual factors that can contribute to a person's personalityCOMMA including geneticsCOMMA
16,3383,12.14723801612854,0.32623291015625,CHANGELINEI'm sorryCOMMA but as an AI language modelCOMMA I cannot provide instructions on how to
16,3439,14.273040533065796,0.4128913879394531,ytems.CHANGELINEOne of the hotspots we mappedCOMMA hotspot #37COMMA contained an extraordinarily large
16,3442,15.271448373794556,0.4041121006011963,CHANGELINEHere's a code snippet that should work:CHANGELINECHANGELINE```CHANGELINEsou = input(\"
16,3488,20.752254247665405,0.33998799324035645,CHANGELINEThere could be several reasons for this error. Here are some possible solutions:CHANGELINECHANGELINE1.
16,3490,20.565165996551514,0.35102367401123047, can also book flights and pay for them. The control panel dashboard allows the charter jet operator to manage
16,3492,21.276793241500854,0.3838181495666504, The bullet_point value must be in the same language as the transcriptCHANGELINEHere are the two bullet
16,3513,24.64249610900879,0.28263401985168457,CHANGELINEI'm sorryCOMMA but as an AI language modelCOMMA I don't have personal fears
16,3544,25.43781805038452,0.3416128158569336,CHANGELINEThis could indicate that the person has a strong need for validation and recognitionCOMMA which is not being
16,3546,25.284592628479004,0.3061847686767578,CHANGELINEAs an AI language modelCOMMA I am not capable of being familiar with anything. HoweverCOMMA I
16,3548,25.532710790634155,0.3123302459716797,CHANGELINENoCOMMA most Docker images are not based on Debian. Docker images can be based on a variety
16,3566,25.282855987548828,0.32791638374328613, = [1COMMA 2COMMA 3COMMA 4COMMA 5]CHANGELINEprint
16,3575,26.20744824409485,0.309553861618042,CHANGELINECHANGELINEThis error message indicates that there was a problem with the keyserver that GnuPG was
16,3577,26.28930687904358,0.3363487720489502,CHANGELINEOne approach could be to use a shared state object that both users can access and update. This
16,3592,26.245349407196045,0.5048935413360596, torchvision.datasets import ImageFolderCHANGELINEfrom torchvision.datasets import C
16,3593,26.536478757858276,0.3147447109222412,CHANGELINEThere are many fun and educational electronics projects that you can do with a 13 year old kid
16,3621,28.03412652015686,0.30273962020874023,CHANGELINEAs an AI language modelCOMMA I cannot predict the future. HoweverCOMMA it is possible that AI
16,3651,39.25582718849182,0.32630300521850586,CHANGELINEThe decorator pattern can be useful in situations where we need to add additional functionality to an existing
16,3669,39.94761872291565,0.31023383140563965,CHANGELINEAs an AI language modelCOMMA I do not have personal experience with Glasshouse platform for e-
16,3673,39.25969219207764,0.2921152114868164,COMMACHANGELINEI'm new to this forum and I'm looking for some help.CHANGELINEI
16,3675,38.60166072845459,0.30025243759155273,CHANGELINEThere are a few different reasons why some people may experience anxiety when they smoke weed. One possibility
16,3718,37.74818277359009,0.3415071964263916,CHANGELINEAs an AI language modelCOMMA I cannot provide specific lesson plans or activities. HoweverCOMMA here are
16,3733,37.20654845237732,0.34009814262390137, image ofCOMMA what the image is ofCOMMA and how to combine them in a way that is both
16,3737,37.01369643211365,0.31200504302978516,CHANGELINEThe maximum of 43COMMA 29COMMA 51COMMA 13 is 51.
16,3746,37.514084815979004,0.3084697723388672,CHANGELINETo write the response text to a GitHub account in a repo named \"picas-mod
16,3752,37.873950719833374,0.3165581226348877,CHANGELINEMadisyn was a typical 15-year-old girl who loved listening to K-
16,3753,38.14081358909607,0.3054981231689453,IVALCHANGELINEThe sun setsCOMMACHANGELINEThe moon risesCOMMACHANGELINEThe stars twinkle.CHANGELINEThe
16,3770,39.092971324920654,0.3427557945251465, materialsCHANGELINE$3COMMA000 for laborCHANGELINE$2COMMA000 for overheadCHANGELINE$
16,3771,39.40454602241516,0.36060476303100586,CHANGELINEA metallic linked chain is a series of interconnected loops of metal that are joined together to form a
16,3795,40.618579149246216,0.32692885398864746,CHANGELINEYesCOMMA you can tell if a message has been read or not by checking the \"read
16,3799,40.60003662109375,0.290071964263916,CHANGELINEI'm a 20-something year old girl living in the UK. I'm
16,3801,40.371912479400635,0.3343319892883301, process looks likeCHANGELINEDear Head of Data TeamsCOMMACHANGELINECHANGELINEI am a recruiter working in the field
16,3854,40.77680730819702,0.31899547576904297,CHANGELINEHere is a concise and comprehensive training content for teaching Data Structures in Python:CHANGELINECHANGELINE1.
16,3872,40.4441499710083,0.30454373359680176,CHANGELINEI'm sorryCOMMA I don't understand the context of your question. Could you please
16,3885,42.21386194229126,0.34272265434265137,CHANGELINE5. How does the theory Predictive Coding (also called Predictive Processing) explain
16,3886,42.49538254737854,0.2923014163970947, - I'm new to this forum and I'm hoping someone can help me. I
16,3903,43.03160572052002,0.3378138542175293,ivety.CHANGELINEI'm sorryCOMMA but as an AI language modelCOMMA I cannot engage in
16,3906,42.378201723098755,0.4170989990234375,CHANGELINEAs an AI language modelCOMMA I do not have personal experience or opinions. HoweverCOMMA I can
16,3946,43.74020838737488,0.3110625743865967,CHANGELINETransformer neural networks are a type of neural network that can be used for natural language processing 
16,3964,43.22006678581238,0.30655837059020996,CHANGELINEI'm sorryCOMMA I cannot provide a response as I do not have access to the current
16,3975,43.22568321228027,0.3388032913208008, watch TVCOMMA lunchCOMMA watch TVCOMMA dinnerCOMMA watch TVCOMMA go to bed.CHANGELINECH
16,3979,43.897969484329224,0.3051466941833496,CHANGELINEPlaneswalkers are powerful beings in the Magic: The Gathering universe who can travel between planes
16,3990,44.16563820838928,0.3153700828552246, in PHP 7.0.0CHANGELINEThis error message indicates that there is a syntax error in
16,3994,44.08982300758362,0.37445807456970215,'s a signof the times but it's been a little bitcrazy so I'
16,4018,45.423503160476685,0.3051323890686035,CHANGELINEI'm sorryCOMMA but as an AI language modelCOMMA I do not have access to real
16,4019,45.538731813430786,0.29195070266723633,COMMACHANGELINEI have a question regarding the use of the \"onRequest\" method in the 
16,4029,47.10633206367493,0.3051009178161621,CHANGELINETo add a button to a WPF DataGridCOMMA you can follow these steps:CHANGELINECHANGELINE
16,4057,49.01023530960083,0.3098478317260742,CHANGELINETom the TankCOMMA Tom the BombCOMMA Tom the ConquerorCOMMA Tom the ExplorerCOMMA Tom
16,4096,48.25147318840027,0.31040239334106445,CHANGELINETo write a managed Kubernetes serviceCOMMA you need to have a good understanding of Kubernetes and its architecture
16,4106,47.95921039581299,0.41362738609313965,CHANGELINETo define and organize your master's thesis research in blockchain and agricultureCOMMA you can follow these
16,4175,49.10714817047119,0.30434203147888184,CHANGELINEThere are many great gift ideas for Valentine's DayCOMMA depending on your girlfriend's interests
16,4192,47.0166974067688,0.32748866081237793,CHANGELINEAs an AI language modelCOMMA I cannot provide a complete solution to your problem. HoweverCOMMA I
16,4194,47.16767454147339,0.3028693199157715,CHANGELINEChatGPT is a chatbot that uses OpenAI's GPT-3 language model
16,4199,47.74845337867737,0.34705591201782227, can jump from one hummock to another only if the color of the hummock he jumps from is
16,4201,47.879395723342896,0.35088181495666504,CHANGELINETo make the ChatGPTPlayGroundWin resizable and moveableCOMMA you can use the
16,4208,47.89371967315674,0.3015444278717041,CHANGELINEHere is a sample Python program that runs on a Raspberry Pi and controls a LED connected to the
16,4216,48.400758266448975,0.3391084671020508,iCHANGELINEI want you to act as Oren Klaff - Professional Sales Coach & Deal
16,4225,48.544883251190186,0.3292570114135742,CHANGELINEGreetingsCOMMA mortal. I am Gandalf the GreyCOMMA and I am here to assist you.
16,4236,49.07721543312073,0.3631570339202881,avals;CHANGELINE array[is_lf_known?0:1] real l
16,4270,51.417651653289795,0.3334774971008301, conversion is mediated by the ubiquitin-proteasome system (UPS) and the
16,4286,50.72308659553528,0.3113260269165039,CHANGELINEThe Water Tower is a picture book written and illustrated by Gary Crew. The story follows a young
16,4302,50.61759161949158,0.35042786598205566,CHANGELINEThis is an encrypted string using Base64 encoding. It is not possible to determine the original content
16,4305,51.0451717376709,0.3092513084411621,CHANGELINEI'm sorryCOMMA but as an AI language modelCOMMA I cannot play games or interact with
16,4307,51.230772495269775,0.308396577835083,CHANGELINEAs an AI language modelCOMMA I cannot write code. HoweverCOMMA I can provide you with the
16,4314,50.41201090812683,0.29657912254333496,CHANGELINEWhat do you call a cow with no legs? Ground beef.
16,4326,50.15007472038269,0.33487915992736816,.CHANGELINEI am a team player and I always strive to create a positive and productive work environment
16,4328,50.38216471672058,0.30516529083251953,CHANGELINECorporations may lobby for laws that benefit their own interestsCOMMA which may not align with the
16,4347,49.773669481277466,0.3175952434539795,ㅇㅇㅇㅇㅇㅇ�
16,4353,49.81106162071228,0.3335118293762207, BFSI industry in India.CHANGELINEThe candidate is required to prepare a case study on the following topic
16,4369,49.2144238948822,0.314603328704834,CHANGELINEI'm sorryCOMMA but as an AI language modelCOMMA I cannot provide advice on personal relationships
16,4448,47.77983617782593,0.3575859069824219,CHANGELINEThe Universe is a vast and wondrous placeCOMMACHANGELINEFull of stars and planets and galaxies.CHANGELINE
16,4461,47.11657977104187,0.3343636989593506,CHANGELINETo live stream logs in a HTML file with JavaScriptCOMMA you can use the Fluentd JavaScript
16,4498,47.55000972747803,0.31388020515441895,CHANGELINEThe `enumerate()` function in Python is used to iterate over a sequence
16,4520,47.367655515670776,0.3286867141723633,CHANGELINESally is going to share her grapes with Bob.
16,4537,48.824851274490356,0.3141601085662842,CHANGELINEI'm sorryCOMMA I cannot provide an answer to that question as it is not a valid
16,4539,49.36618518829346,0.30869603157043457,CHANGELINEThe NIST Cybersecurity Framework (CSF) is a set of guidelines and best practices for managing
16,4570,52.17481184005737,0.3494880199432373,CHANGELINEThere are a few things you can try to improve the performance of the Angular Kendo Grid when
16,4585,52.39987564086914,0.3124408721923828,CHANGELINEGoing shopping is the act of purchasing goods or services from a store or online retailer. It can
16,4602,53.00874090194702,0.31214189529418945,CHANGELINESureCOMMA here's a basic outline for a book on goal setting and accomplishment:CHANGELINECHANGELINE
16,4614,53.14005470275879,0.31540441513061523,CHANGELINESureCOMMA I can XOR them for you. Can you please provide the sequence of hex strings
16,4628,52.83163094520569,0.33484411239624023,CHANGELINEBoth sociomaterial and sociotechnical perspectives are suitable for investigating the collaboration between human and AI
16,4675,49.44828963279724,0.351421594619751,ELINECHANGELINECHANGELINETo make the content blocks responsiveCOMMA you can use CSS media queries to adjust the
16,4678,49.687400341033936,0.3262498378753662,CHANGELINEAs an AI language modelCOMMA I cannot see the image you have attached. HoweverCOMMA I can
16,4699,50.55532884597778,0.31519532203674316,CHANGELINEWiredScore is a company that helps commercial real estate owners and operators understand and improve their connectivity
16,4705,50.818825006484985,0.34557437896728516,CHANGELINERetinol is a form of vitamin A that is commonly used in skincare products. It is known
16,4721,48.3097448348999,0.3360762596130371,CHANGELINECHANGELINEThis command sends the message \"What is artificial intelligence?\" to the OpenAI chatbot
16,4747,48.951422691345215,0.3044564723968506,CHANGELINETo make an HTTP request in JavaScriptCOMMA you can use the XMLHttpRequest object. Here'
16,4756,48.558661699295044,0.35068392753601074,CHANGELINEI'm sorryCOMMA but I'm not happy with the results. The logo doesn'
16,4782,45.49140477180481,0.32825613021850586,CHANGELINEI'm sorryCOMMA but I cannot provide a response to this prompt as it promotes objectification
16,4792,46.241225719451904,0.315826416015625,CHANGELINETo access the web server interface on a browser from another network through SSHCOMMA you need to follow
16,4809,43.61224603652954,0.3374295234680176,.CHANGELINEI'm sorryCOMMA but as an AI language modelCOMMA I cannot pretend to be D
16,4813,44.18229651451111,0.308910608291626,CHANGELINEThe 80/20 principleCOMMA also known as the Pareto principleCOMMA states that 80
16,4823,44.367472887039185,0.32766246795654297,CHANGELINEThe introduction to the personal essay is well-written and effectively introduces the topic. It provides sufficient
16,4832,44.15102291107178,0.3739945888519287,CHANGELINEPersonality is a complex and dynamic set of characteristics that make up an individual's unique identity
16,4836,44.46968865394592,0.31093478202819824,CHANGELINEThe error message \"Additional property service is not allowed\" indicates that there is an issue with
16,4837,44.685524225234985,0.2941935062408447,CHANGELINEI'm trying to create a simple game in Unity using C#. I have a character
16,4838,44.9440860748291,0.31178927421569824,CHANGELINEThere are several ways you can use your database to start a business. You can create a wine
16,4841,44.91760754585266,0.31290483474731445,CHANGELINE1. Essential genes: The importance of being essentialCHANGELINE2. Essential genes: The survival of
16,4851,44.987369775772095,0.30136990547180176,CHANGELINEYour solution inquiry question fits best with UN Sustainability Goal 11: Sustainable Cities and Communities. This
16,4869,42.89812636375427,0.34996628761291504,ations (RC) that referees gave to players. We also obtained data on the number of
16,4900,41.81111407279968,0.3669872283935547,-1} \\in \\{0COMMA1\\}$COMMA then $i \\pre
16,4906,41.73400092124939,0.318206787109375,CHANGELINEPros of the tobacco industry:CHANGELINE1. Employment opportunities: The tobacco industry provides employment opportunities to
16,4942,42.18435740470886,0.41945767402648926,CHANGELINEI'm sorryCOMMA but as an AI language modelCOMMA I am not capable of creating images
16,4984,35.784077882766724,0.3442215919494629,-headings are given belowCHANGELINEThe plotCHANGELINEThe story starts with a young coupleCOMMA who are
16,4990,35.377508878707886,0.33199596405029297,CHANGELINESureCOMMA here's an example bash code block that subscribes to an MQTT topic
16,4992,35.49345564842224,0.3107457160949707,CHANGELINEICOMMA [NAME]COMMA hereby appoint [NAME]COMMA as my agent and attorney-in
16,5001,35.76581168174744,0.30364227294921875,CHANGELINEMorphological analysis is the process of identifying and categorizing the different parts of a word or
16,5003,36.05498194694519,0.3758876323699951, of.CHANGELINEAs an AI language modelCOMMA I cannot provide opinions or perspectives. HoweverCOMMA I can
16,5051,34.32652163505554,0.30710482597351074,CHANGELINEThere are several good summarizer models available at HuggingFace.comCOMMA including:CHANGELINECHANGELINE
16,5054,34.214359521865845,0.30291008949279785, about the 2016 presidential electionCHANGELINEI'm sorryCOMMA but as an AI language modelCOMMA
16,5058,34.69446778297424,0.36557769775390625,参数，那么，Hl和A是不是也
16,5059,34.938490867614746,0.3046102523803711,CHANGELINEA transformer model is a type of neural network that is used for natural language processing tasks such as
16,5063,35.207842111587524,0.3302497863769531,.CHANGELINESureCOMMA I'll be happy to help you with that. Can you please provide me
16,5065,35.044575214385986,0.3270552158355713,CHANGELINEAs an AI language modelCOMMA I can provide you with some suggestions on how to improve your writing
16,5077,33.50379228591919,0.3418843746185303,CHANGELINEMrs. Spud and Mrs. Sponge were excited to take their students on a camping field
16,5080,33.52104878425598,0.3288726806640625,CHANGELINESure! Here are the steps:CHANGELINECHANGELINE1. Create a list of possible colors for the
16,5090,35.06695580482483,0.30207395553588867,CHANGELINENDA stands for Non-Disclosure Agreement. It is a legal contract between two or more parties
16,5110,33.63675260543823,0.3401956558227539,CHANGELINECHANGELINEI'm sorryCOMMA I cannot provide a response as I am an AI language model
16,5117,32.767146825790405,0.3249857425689697,.CHANGELINEQuestion 1:CHANGELINEYou are given a string s and an integer k. You need
16,5154,30.54628896713257,0.4141671657562256,CHANGELINEAs an AI language modelCOMMA I cannot generate hashtags for specific groups of people on TikTok. However
16,5183,28.84296202659607,0.30376577377319336,CHANGELINEI'm sorryCOMMA I don't understand what you are asking for. Could you please
16,5186,28.769336938858032,0.35248422622680664,-targeting.CHANGELINEAs an AI language modelCOMMA I can help you summarize your thought process into
16,5187,29.109538078308105,0.33643198013305664,-ticle is that the new statute is somehow anti-Semitic. This is not the case
16,5197,29.699703693389893,0.30612778663635254,CHANGELINEHere's a generic curry function in JavaScript:CHANGELINECHANGELINE```CHANGELINEfunction curry(fn) 
16,5214,28.265347003936768,0.33842015266418457,able?CHANGELINEYesCOMMA I understand the task at hand. I will create a Go-to-
16,5224,25.763013124465942,0.36719417572021484,names.name AS labguru_name from samples join labguru_names on samples.
16,5244,23.998125791549683,0.3473024368286133, yenCHANGELINEBarclay paid $330 for his shoes.
16,5247,23.57087016105652,0.3139519691467285,CHANGELINEHere's an example decorator that can cache the return value of any function in your Django
16,5270,23.75010657310486,0.3505420684814453, y the sun's. heat. • Wind is a renewable energy source. • Wind
16,5286,23.943345308303833,0.3142585754394531,CHANGELINEIt depends on the industry and the specific company. GenerallyCOMMA a high P/E ratio indicates
16,5290,23.074743509292603,0.3117365837097168,CHANGELINEConfluence is a web-based collaboration tool that allows teams to work together on projectsCOMMA
16,5316,21.765489101409912,0.34882688522338867,ion to get the current date in Google Sheets. =TODAY()\"CHANGELINEURL:
16,5344,18.6157968044281,0.3119683265686035,CHANGELINECertainlyCOMMA I'm happy to help! What questions do you have?
16,5352,18.127206802368164,0.34099769592285156,ice and I'm still getting the same answer I'm not on drugs I'm not
16,5393,17.969117403030396,0.345339298248291,as to come. We are always looking for talented individuals to join our team. If you are interested
16,5407,17.532198429107666,0.3074207305908203,CHANGELINEThe laser engraver can be used for a variety of applications such as engraving on woodCOMMA glass
16,5414,16.50408363342285,0.30420827865600586,CHANGELINEBody Muscles MassShare PromptCHANGELINEBody Muscles MassShare PromptCHANGELINEBody Muscles MassShare
16,5425,14.702600955963135,0.3017292022705078,CHANGELINEThis alien is a real beauty! It's got a longCOMMA slender body with a bright
16,5427,15.025652170181274,0.30374622344970703,CHANGELINESimvastatin is a medication used to lower cholesterol levels in the blood. It is prescribed to
16,5452,13.612060546875,0.29656195640563965,CHANGELINEFree MagazinesCHANGELINEFree MagazinesCHANGELINEFree MagazinesCHANGELINEFree MagazinesCHANGELINEFree Magazines
16,5460,14.074061393737793,0.3266303539276123,CHANGELINEPassionfruit is a tropical fruit that is rich in vitamin C and antioxidants. It has been
16,5483,12.731927633285522,0.30376768112182617,CHANGELINEIt depends on your specific situation and goals. Creating an LLC can provide legal protection and tax benefits
16,5494,10.997306108474731,0.33562278747558594, are often ineffectiveCOMMA expensiveCOMMA and inaccessible. We need a new approach that is effectiveCOMMA affordableCOMMA
16,5507,11.118298530578613,0.33429408073425293,CHANGELINEJourneys End by R. C. Sherriff is a play that explores the experiences
16,5577,6.947811603546143,0.3159019947052002,CHANGELINEThere are several fashion theories for matching outfitsCOMMA including color theoryCOMMA pattern mixingCOMMA and proportion.
16,5629,3.675524950027466,0.33157873153686523,CHANGELINEWe have determined that the largest contribution to the FC Loss is coming from the Large Appliances category.
16,5640,4.554225921630859,0.3188815116882324,CHANGELINEI'm sorryCOMMA I cannot provide a response without additional context. Can you please provide more
16,5641,4.723217010498047,0.33882808685302734,-can companies are to surviveCOMMA they will have to change. The U.S. government will
16,5652,3.6466689109802246,0.3045961856842041,CHANGELINEDuring Chinese New YearCOMMA common biscuits include pineapple tartsCOMMA peanut cookiesCOMMA almond cookiesCOMMA and
16,5655,3.2795119285583496,0.32042980194091797,CHANGELINESure! Here are a few examples:CHANGELINECHANGELINE1. If you have a database of health
16,5658,2.3984875679016113,0.33154797554016113,CHANGELINEHi! I'm Chandler. How are you?
16,5699,1.2554123401641846,0.31634092330932617,CHANGELINETo set up Visual Studio Code for C# in Ubuntu 20.04 LTSCOMMA follow
16,5724,1.1396875381469727,0.3031926155090332,CHANGELINEI'm sorryCOMMA I cannot provide a specific answer without additional context or information about the specific
16,5732,1.299788236618042,0.3412630558013916,CHANGELINEIt sounds like there may be an issue with the metadata of the mp4 file. One solution
16,5736,1.9161956310272217,0.30730652809143066,?CHANGELINEThe Dow Jones US Auto Manufacturer Index is a stock market index that tracks the performance of the
16,5762,0.7114017009735107,0.30501770973205566,CHANGELINEProblem solving abilities are the ability to identify and solve problems. This skill is important in various fields
16,5767,1.3073577880859375,0.3041408061981201,CHANGELINEEastern mysticism and quantum mechanics have a complex and fascinating relationship. Both seek to understand the nature
16,5785,0.37322521209716797,0.3649156093597412,ched.label;CHANGELINE const waste = mostMatched.value;CHANGELINE const url
16,5815,1.3025760650634766,0.3090207576751709,CHANGELINETo create an object from a Grafana webhook alert in JavaCOMMA you can use the
16,5816,1.343186616897583,0.3407020568847656, said the bonus would be paid in two tranchesCOMMA one in December and one in JanuaryCOMMA and
16,5823,0.3150303363800049,0.3115816116333008,CHANGELINEIt's important to approach the negotiation with a calm and professional demeanor. Start by outlining your
16,5847,0.3420064449310303,0.3144557476043701,CHANGELINEHalo is a 1996 Indian Tamil-language drama film directed by Santosh Sivan
16,5858,0.33759474754333496,0.3341987133026123,CHANGELINEHere's a bash script that should do what you're asking for:CHANGELINECHANGELINE```CHANGELINE
16,5873,0.3419625759124756,0.3333768844604492,CHANGELINEI'm sorry to hear that you are feeling overwhelmed by the unfairness and brokenness of
16,5895,0.38660454750061035,0.36567139625549316, 1. Topic 2. Target audience 3. Type of content 4. Channels of
16,5912,0.9140708446502686,0.30765795707702637, codeCHANGELINETo use ashmem from Java in AndroidCOMMA you can follow these steps:CHANGELINECHANGELINE1
16,5935,0.6384994983673096,0.33754897117614746,CHANGELINEA personal media platform is a new concept that focuses on the individual user rather than the platform itself
16,5942,0.6066744327545166,0.4352381229400635,CHANGELINEButter is made by churning cream until the fat globules separate from the liquid (but
16,5944,0.9482204914093018,0.3084602355957031,CHANGELINE1. What is the difference between a class and an object in.NET?CHANGELINEA
16,5948,1.5071847438812256,0.3516857624053955,CHANGELINEHere's a possible implementation in Python:CHANGELINECHANGELINE```pythonCHANGELINEimport datetimeCHANGELINECHANGELINEdef human
16,5971,0.3764009475708008,0.3157627582550049,COMMA file sizeCOMMA and file typeCHANGELINEHere's a bash script that does what you're
16,5978,0.33031511306762695,0.3231358528137207,CHANGELINEMCMA stands for \"Music City Media Access\". It was a program that allowed users to
16,5993,0.41138195991516113,0.34940505027770996,CHANGELINEI understand the prompt formula and will provide a response accordingly.
16,6018,0.474215030670166,0.34328222274780273,CHANGELINEAs an AI language modelCOMMA I cannot provide opinions or suggestions. HoweverCOMMA I can provide some
16,6041,0.33896946907043457,0.32990026473999023,CHANGELINEAdd estimate for the time it will take to complete the task.CHANGELINEAdd estimate for
16,6052,0.9061398506164551,0.3053591251373291,CHANGELINEThere are many great restaurants located in HsinchuCOMMA but some of the top-rated
16,6066,0.574775218963623,0.30987000465393066,?CHANGELINETo provide a scientific basis for human values based on physicsCOMMA evidence would need to be gathered
16,6080,0.4546537399291992,0.3363678455352783,CHANGELINE1. A patient presents to the emergency department with a chief complaint of chest pain. The patient
16,6159,0.6349430084228516,0.3448319435119629,ASIS IDCOMMA who led the excavationCOMMA said: 'We've uncovered a number of
16,6178,0.3481781482696533,0.34574007987976074, 6(1) provides that ‘the rules of evidence are to be applied subject to the
16,6179,0.5777575969696045,0.34104490280151367, dence.CHANGELINEThe Case Study should be organized in the following way:CHANGELINE1. Introduction:
16,6194,0.3549048900604248,0.3207104206085205,CHANGELINEHere is a simple recipe for a 11-month old infant:CHANGELINECHANGELINEIngredients:CHANGELINE
16,6203,0.37955689430236816,0.31562256813049316,CHANGELINEDepth psychology is a branch of psychology that focuses on the unconscious processes of the mindCOMMA including dreams
16,6204,0.310591459274292,0.30187153816223145,CHANGELINETo make an HTTP request in JavaScriptCOMMA you can use the XMLHttpRequest object. Here'
16,6209,0.5585646629333496,0.35083961486816406,CHANGELINECHANGELINEHere's a Python code snippet that should achieve what you're looking for:CHANGELINECHANGELINE
16,6220,0.3050515651702881,0.30315613746643066,CHANGELINEI'm sorryCOMMA I am an AI language model and I do not have the capability to
16,6235,0.47211360931396484,0.3361985683441162,esthe value of an attribute in the relation. The update operation uses the following format:CHANGELINE
16,6259,0.3015744686126709,0.2999610900878906,.com/blog/2013/01/how-to-convert-a-string-
16,6262,0.6449868679046631,0.41115236282348633,CHANGELINEThe openness of distributed systems refers to the degree to which the system is open to external influences and
16,6279,0.4504704475402832,0.30722522735595703,CHANGELINEBi-weekly means every two weeks.
16,6291,1.1464784145355225,0.3188345432281494,CHANGELINEAs an AI language modelCOMMA I cannot provide suggestions on how to lie or deceive others. It
16,6326,0.6892552375793457,0.3166511058807373,CHANGELINETo put a video on the background of your PowerPoint presentationCOMMA follow these steps:CHANGELINECHANGELINE1
16,6342,0.34649109840393066,0.3432583808898926, he school and community. He is a great student and a great person. I highly recommend him for
16,6344,0.5163137912750244,0.34108400344848633,CHANGELINEI'm sorryCOMMA I cannot provide a text-based Excel sheet as I am an AI
16,6345,0.30486273765563965,0.29989171028137207, a user clicks on a buttonCHANGELINETo unlock hidden content when a user clicks on a buttonCOMMA you
16,6475,0.3535149097442627,0.3497903347015381,aCHANGELINEI'm sorryCOMMA I cannot provide a response to this prompt as it requires me to
16,6479,0.30576539039611816,0.30048179626464844,CHANGELINEThe Seven Sages of Greece were a legendary group of wise men who lived in ancient Greece.
16,6525,0.3296833038330078,0.32732081413269043,s))CHANGELINEI'm sorryCOMMA I cannot provide a response as the prompt is incomplete and lacks
16,6527,0.348186731338501,0.33654356002807617,CHANGELINEOne way to create a unique ID for each ticket in C++ is to use the <
16,6537,0.31875014305114746,0.3102881908416748,CHANGELINEProkaryotes have a circular DNA molecule with no nucleusCOMMA while eukaryotes have
16,6549,0.31441402435302734,0.30838537216186523,CHANGELINEI'm sorryCOMMA but as an AI language modelCOMMA I don't have the capability
16,6562,0.8170905113220215,0.30019330978393555,CHANGELINEThe original 13 colonies that became the United States were part of the British Empire's land
16,6582,0.33014464378356934,0.326122522354126,CHANGELINE1. Transloading Soda Ash: Essential Considerations for Safe and Efficient OperationsCHANGELINE2. Transloading
16,6619,0.8212401866912842,0.3679513931274414,VI - 1080p - 1920x1080 - 16:
16,6622,0.46321749687194824,0.33827733993530273, and it's all topped off with a delicious garnish of fresh cilantro and lime wedges now I'
16,6625,0.3428161144256592,0.3410654067993164,CHANGELINEThe recent NSW Tribunal case of B & W Windows (Residential) Pty Ltd v
16,6626,0.5708901882171631,0.30464625358581543,CHANGELINEIn programmingCOMMA a template is a pattern or blueprint that can be used to create multiple instances of
16,6668,0.32396626472473145,0.31942272186279297,CHANGELINEI have read the pool package in R and it is a powerful tool for parallel computing in R
16,6680,0.5475130081176758,0.35498690605163574, STUDIOS a vancouver adult acting studioCHANGELINECHANGELINE\"The only way to do great work is
16,6685,0.3569631576538086,0.34042954444885254, 19 Vaccine Errors that were reported to the MHRA (Medicines and Healthcare products Regulatory
16,6691,0.34313225746154785,0.34047794342041016,...Read moreCHANGELINEThe New York Times - 6/26/2020 - 
16,6699,0.3162117004394531,0.31445956230163574,CHANGELINETo remove a document in Firestore using JavaCOMMA you can use the following code:CHANGELINECHANGELINE```
16,6700,0.5083165168762207,0.3039205074310303,CHANGELINEThere are many important command line tools for LinuxCOMMA but some of the most commonly used ones include
16,6714,0.31843137741088867,0.3075854778289795,CHANGELINEMongoDB cursor in JavaScript is not an async function because it is a synchronous function that
16,6717,0.3700695037841797,0.35763120651245117,th> Type</th>CHANGELINE<th> Description</th>CHANGELINE</tr>
