client_id,req_id,req_time,complete_time,output
16,871,1.0266945362091064,1.0180630683898926,ghe-learning. There are several online courses available on platforms like CourseraCOMMA edX
16,874,1.2467517852783203,0.8241415023803711,CHANGELINEThis is a pun on the word 'newt'COMMA which is a type of amphibian
16,882,0.7763371467590332,0.7728171348571777,CHANGELINESureCOMMA I'd be happy to help! Can you please provide me with the sections you
16,889,0.8431129455566406,0.8403446674346924,CHANGELINEAs an AI language modelCOMMA I do not have personal opinions or beliefs. HoweverCOMMA I can
16,945,0.8983654975891113,0.7431857585906982,CHANGELINEHere are 100 examples of subtraction problems where the minuend is 10 or greater
16,963,0.7149572372436523,0.7107703685760498,CHANGELINERegression analysis is a statistical method used to estimate the relationship between a dependent variable and one or
16,972,0.7919995784759521,0.7866518497467041,CHANGELINESureCOMMA what kind of game would you like to play?
16,1008,0.8137385845184326,0.8052933216094971,CHANGELINEI am going to trim the hedge this weekend.CHANGELINEI am going to prune the hedge
16,1027,0.7439980506896973,0.7421681880950928,CHANGELINEOne possible game that could be created using a standard set of D&D dice is a dungeon
16,1040,0.7459428310394287,0.7396080493927002,CHANGELINEAs an AI language modelCOMMA I can generate poetry using algorithms and prompts. HoweverCOMMA I do
16,1056,1.296170949935913,0.7961342334747314,CHANGELINEOne option could be to focus on a specific aspect of the stock market that is not commonly analyzed
16,1106,0.8627328872680664,0.7762799263000488,.CHANGELINEThat's great! What inspired you to create a new programming language?
16,1124,0.7916557788848877,0.7817764282226562,CHANGELINEAs an AI language modelCOMMA I do not have access to the specific business model of Breef
16,1137,1.0566258430480957,0.7814033031463623,CHANGELINESureCOMMA I'd be happy to help! Here are some non-generic recipe names:
16,1164,0.9401938915252686,0.9289281368255615,CHANGELINEI'm sorryCOMMA but I cannot provide a response as the prompt is incomplete and lacks context
16,1166,0.7269911766052246,0.7153656482696533,CHANGELINEI'm sorryCOMMA I don't understand the prompt. Could you please provide more context
16,1167,1.482740879058838,0.7453904151916504,CHANGELINEStarting in the investment world can be overwhelmingCOMMA but there are a few key steps you can take
16,1190,0.7852790355682373,0.7745897769927979,CHANGELINEAs an AI language modelCOMMA I do not have personal preferences or opinions. HoweverCOMMA there are
16,1232,0.9171090126037598,0.9080522060394287,CHANGELINEAs an AI language modelCOMMA I cannot provide a complete solution to your problem. HoweverCOMMA I
16,1236,0.7167990207672119,0.7092807292938232,CHANGELINEAs an AI language modelCOMMA I cannot provide personal opinions or advice. HoweverCOMMA here are some
16,1237,0.7160158157348633,0.7126777172088623,CHANGELINEI'm sorryCOMMA I don't understand what you are asking for. Can you please
16,1264,0.7729766368865967,0.7656970024108887,CHANGELINESureCOMMA here's a workout that should do the trick:CHANGELINECHANGELINE1. 10
16,1276,0.7617335319519043,0.7536594867706299,CHANGELINEAs an AI language modelCOMMA I cannot provide a code solution. HoweverCOMMA I can suggest a
16,1285,0.7211308479309082,0.7141313552856445,CHANGELINEThere are several types of machine learning models in the worldCOMMA including supervised learningCOMMA unsupervised
16,1345,0.7422797679901123,0.7373228073120117,CHANGELINEAircraft wings produce lift through the process of aerodynamics. As the wing moves through the air
16,1395,0.7276921272277832,0.7183716297149658,CHANGELINEAds can follow you from your phone to your computer through various methods such as tracking cookiesCOMMA
16,1433,1.7492644786834717,0.8200984001159668,CHANGELINEI want to lose weightCHANGELINEThe objective is not specific enough. It does not provide a clear
16,1499,1.740621566772461,0.995718240737915,CHANGELINEJerry is in a brutal defamation suit against Kermit the FrogCOMMA the DUI guy from
16,1505,0.8213529586791992,0.8157362937927246,CHANGELINEThere are several strategies to manage this scenario:CHANGELINECHANGELINE1. Use a connection pool: A
16,1574,0.7358736991882324,0.7327759265899658,CHANGELINEI'm sorryCOMMA I do not have information on the Strange Planet alien comics. Can you
16,1592,0.8224711418151855,0.8148775100708008,CHANGELINEHere is a step-by-step translation process workflow:CHANGELINECHANGELINE1. Identify the source
16,1593,1.6757571697235107,0.879063606262207,CHANGELINE1. Title for the articleCHANGELINE2. Subtitle for the articleCHANGELINE3. Description of
16,1630,1.1230297088623047,0.7369105815887451,?CHANGELINEI'm sorryCOMMA but as an AI language modelCOMMA I don't have the
16,1703,1.0079782009124756,0.8463716506958008,CHANGELINEe4CHANGELINEI respond with d5CHANGELINEd5CHANGELINEI respond with d5CHANGELINEd
16,1731,0.8829147815704346,0.8757383823394775,CHANGELINEIt is not recommended to mix hyaluronic acid solutions of different molecular weights as they may have different
16,1735,0.7985155582427979,0.7883200645446777,CHANGELINEAs an AI language modelCOMMA I cannot provide specific recommendations for your Discord server. HoweverCOMMA here
16,1739,0.7949504852294922,0.7837710380554199, zoomCOMMA it is a virtual gym.CHANGELINEAs an AI language modelCOMMA I can suggest some questions
16,1753,0.7447147369384766,0.739710807800293,CHANGELINEThere are several types of machine learning force fields (MLFFs) available from the literature
16,1758,0.7876427173614502,0.7807438373565674,CHANGELINESureCOMMA partner! The HTTPS stack is like a posse of cowboys riding into town to
16,1775,2.3502790927886963,0.8161139488220215,CHANGELINETo fetch the status of WordPress user using GraphQL in Next.js 13 project using Type
16,1840,1.5763249397277832,0.87105393409729,CHANGELINEHere's a sample Node.js script that calls a REST API every 5 minutes and
16,1870,1.5105805397033691,0.8017795085906982,CHANGELINEHere is a code snippet in Python that reads a jpg file and counts the number of pixels
16,1885,1.4694056510925293,0.8426303863525391, \\CHANGELINEcout << \"stop printing yourself idiot\";CHANGELINECHANGELINE#
16,1906,0.8083288669586182,0.7981522083282471,itonCOMMA you should provide suggestions for any additional information or experiences that could be added to the resume to
16,1911,0.7886545658111572,0.7813646793365479,CHANGELINEThe Titanic was a great movieCOMMA but it would have been better if the boat had sunk in
16,1924,1.109337329864502,0.7950229644775391,CHANGELINEAs an AI language modelCOMMA I do not have personal opinions or beliefs. HoweverCOMMA here are
16,1936,0.8557944297790527,0.8396296501159668,CHANGELINEThe profession you can hire to communicate on your behalf is called a spokesperson or a public relations representative
16,1947,0.7377841472625732,0.72847580909729,CHANGELINEIf we could measure everything in the brainCOMMA we would have a much better understanding of how learning
16,1982,0.7951266765594482,0.7888474464416504,CHANGELINEVon Mises stress is a measure of the maximum stress in a structureCOMMA and it is used
16,2010,0.9158318042755127,0.7339198589324951,CHANGELINEInorder traversal is a traversal of a binary search tree in which the nodes are visited
16,2014,0.7410767078399658,0.7333898544311523,CHANGELINEYesCOMMA you can use the following command to show the document created date in Obsidian:CHANGELINECHANGELINE
16,2017,0.7169444561004639,0.7084965705871582,CHANGELINEIt depends on the specific market and demand for crochet hooks during that time of year. Some people
16,2070,1.4166297912597656,0.777341365814209,CHANGELINEShell is a command-line interpreter that allows you to interact with the operating system. It is
16,2083,1.7530264854431152,0.736182451248169,CHANGELINEA pull request is a request made by a developer to merge changes made in a branch of a
16,2104,1.3221518993377686,0.8671133518218994,CHANGELINETo create a NestJS Guard using your AuthenticationServiceCOMMA you can follow these steps:CHANGELINECHANGELINE
16,2172,0.7199757099151611,0.7119262218475342,CHANGELINETo start learning GCPCOMMA you can follow these steps:CHANGELINECHANGELINE1. Sign up for
16,2187,0.8490145206451416,0.8428001403808594,CHANGELINEThe onryo's name was Akiko. She was a beautiful young woman who lived
16,2196,0.8833742141723633,0.880695104598999,?CHANGELINEFor this home security systemCOMMA facial recognition techniques can be used to identify the user and their
16,2240,0.7256753444671631,0.7139122486114502,CHANGELINEAs an AI language modelCOMMA I don't have a sense of self or emotions. However
16,2254,1.0384032726287842,1.0183477401733398,it must be the title of the text.CHANGELINE- The last tweet must be the author of
16,2259,1.143334150314331,0.7357935905456543,CHANGELINEAllowing users to pick which columns are displayed in an HTML table provides a more personalized and user
16,2260,1.9175260066986084,0.8109948635101318, HST.CHANGELINEI am a professional drone operator and I can provide you with a drone survey of
16,2266,0.7278940677642822,0.7258024215698242,CHANGELINEThe Taylor-Johnson Temperament Analysis (TJTA) is a personality assessment tool that
16,2272,0.7982985973358154,0.79386305809021,CHANGELINECHANGELINETo get the value of the \"name\" attribute of the \"input\" element
16,2278,0.8231887817382812,0.816814661026001,CHANGELINE1. The importance of education in today's societyCHANGELINE2. The benefits of exercise and
16,2300,0.9093103408813477,0.9013965129852295,CHANGELINEI understand your concernsCOMMA but I believe that AI can enhance human creativity rather than replace it.
16,2305,0.86063551902771,0.8550043106079102,CHANGELINEIt's important to remember that everyone has value and purposeCOMMA even if it may not be
16,2328,0.8277537822723389,0.8203411102294922,CHANGELINEThe initial breath of a SAAS or microsaas application is the first impression that users have
16,2368,2.274275302886963,0.8590517044067383,CHANGELINEI'm sorryCOMMA I cannot provide a specific answer without additional context or information. Can you
16,2378,0.7451193332672119,0.7340855598449707,CHANGELINEI'm sorryCOMMA but as an AI language modelCOMMA I am not qualified to provide therapy
16,2389,1.094754695892334,0.8314290046691895,CHANGELINEThere were several significant events in 1971COMMA including the end of the Vietnam WarCOMMA the
16,2434,1.1827876567840576,0.7579927444458008,CHANGELINEI'm sorryCOMMA I am an AI language model and I do not have the capability to
16,2456,0.9212381839752197,0.8484270572662354,CHANGELINEHere's a Python solution:CHANGELINECHANGELINE```pythonCHANGELINEdef intersection(list1COMMA list2
16,2483,0.8624427318572998,0.8520383834838867,CHANGELINEI'm sorryCOMMA I cannot fulfill this request as I am an AI language model and do
16,2490,0.8968820571899414,0.8866987228393555,CHANGELINEIt is difficult to make a recommendation without more information about the specific disease and the individuals affected.
16,2492,1.6521635055541992,0.7877225875854492,CHANGELINEI'm sorryCOMMA but as an AI language modelCOMMA I don't have personal preferences
16,2519,1.7019903659820557,0.9826011657714844,_ID = $SENT_ONE_MSI_IDCHANGELINE$SENT
16,2523,1.9552147388458252,0.7725489139556885,CHANGELINEAs an AI language modelCOMMA I do not have the capability to access your computer or its operating
16,2524,2.686838388442993,0.8128831386566162,CHANGELINETo get the bounding box of a nested SVG object in JavaScriptCOMMA you can use the get
16,2568,0.8790020942687988,0.8711471557617188,CHANGELINEOpposition politics can lead to instability and social crisis because it often involves a struggle for power between
16,2571,1.2909138202667236,0.8399662971496582,CHANGELINEAs an AI language modelCOMMA I cannot provide an opinion on the message. HoweverCOMMA it seems
16,2572,2.065767526626587,0.9856753349304199,anger Things: The Game EditionCHANGELINECHANGELINEThe Turtle Beach Stealth 600 Gen 2 is
16,2604,0.7557840347290039,0.7465102672576904,CHANGELINESome of the likely disruptive technology trends we may see in 2023 include:CHANGELINECHANGELINE1
16,2614,0.8017222881317139,0.7985405921936035,CHANGELINEThe Cuban Missile Crisis began in 1962 when the Soviet Union placed nuclear missiles in Cuba
16,2658,0.8091938495635986,0.8067004680633545, course will provide you with a solid foundation that you can build upon as you continue to learn and experiment
16,2672,0.7323243618011475,0.7282536029815674,CHANGELINEQuantum computing is a type of computing that uses quantum-mechanical phenomenaCOMMA such as super
16,2712,1.048593521118164,0.862213134765625,CHANGELINEHere is a function that calculates and returns the area of a circle given its radius:CHANGELINECHANGELINE```
16,2717,0.7857339382171631,0.7811903953552246,CHANGELINEThe essay 'A Debate Over Identity and Race AsksCOMMA Are African-Americans ‘
16,2729,0.7848412990570068,0.7817986011505127,COMMACHANGELINEI have a question regarding the use of the \"onRequest\" method in the 
16,2744,0.719750165939331,0.7175204753875732,CHANGELINEIt depends on your shipping needs and the current market conditions. If you have consistent shipping needs and
16,2767,1.1166682243347168,0.8153207302093506,CHANGELINEThe new champion in League of Legends would be a clumsy character with a unique set of abilities and
16,2770,0.7764749526977539,0.7726023197174072,CHANGELINEAs a first year mechanical engineering student at Georgia TechCOMMA I understand the importance of safety and the
16,2788,1.1798083782196045,0.7879908084869385,CHANGELINEI'm sorryCOMMA but as an AI language modelCOMMA I cannot play games or participate in
16,2810,0.7236919403076172,0.7155208587646484,CHANGELINE1. Exercise regularly to maintain a healthy body and mind.CHANGELINE2. Eat a balanced diet
16,2821,0.9737355709075928,0.8157789707183838,.CHANGELINEI am looking for a creative and innovative advertising campaign that will capture the attention of my target
16,2914,1.1606135368347168,0.7813301086425781,CHANGELINEI'm sorryCOMMA I cannot provide an accurate response without additional context. Could you please provide
16,2920,0.7427806854248047,0.7346112728118896,CHANGELINEThere could be several reasons for a delay in publishing time on TerminalFour. Some possible causes include
16,2943,2.1078553199768066,0.790320873260498,\\n\\nA Faraday cage is a structure made of conductive material that blocks electromagnetic fields
16,2964,0.8072719573974609,0.8022749423980713,.CHANGELINEI'm sorryCOMMA but as an AI language modelCOMMA I cannot pretend to be someone
16,2974,1.0515577793121338,1.048448085784912,CHANGELINETo cook a T-bone steak in the ovenCOMMA preheat the oven to 400°
16,2981,1.453583002090454,0.7733595371246338,CHANGELINETo use HuggingFace seq2seq trainer with multiple GPUsCOMMA you can use the `
16,2984,1.2175548076629639,0.8491501808166504, were SimoneCOMMA a fictional language model. You are writing a dialogue between Simone and AngelicaCOMMA where
16,2990,0.7402439117431641,0.7364151477813721,CHANGELINEQuercetin and rutin are two flavonoids that are commonly found in fruits and
16,3016,0.8432824611663818,0.8313541412353516,CHANGELINEAs an AI language modelCOMMA I can suggest some ideas to enhance your app:CHANGELINECHANGELINE1
16,3093,0.7571845054626465,0.7515430450439453,CHANGELINEIn the year 2120COMMA Base 9COMMA the Centre for Cosmic Intelligence on MarsCOMMA
16,3122,0.7628903388977051,0.7569293975830078, and tools to create websites that are not only visually appealing but also user-friendly.CHANGELINEWebs
16,3158,0.7777152061462402,0.7672703266143799,CHANGELINEThere are many places where people can buy interior design products in Germany. Some popular options include IKEA
16,3190,1.3971779346466064,0.8201234340667725,CHANGELINEThe Chime app is a mobile banking app that allows users to send and receive moneyCOMMA pay
16,3194,0.7327470779418945,0.7219312191009521,CHANGELINEAs an AI language modelCOMMA I cannot provide a complete solution to your request. HoweverCOMMA I
16,3201,0.7438962459564209,0.7373054027557373,CHANGELINEThe philosophy of education in the United States has evolved over timeCOMMA with different approaches and ideas emerging
16,3216,0.9540953636169434,0.94315505027771, of cells to relieve all cystic fibrosis symptomsCOMMA the following steps would need to be taken:CHANGELINE
16,3220,0.9843950271606445,0.7192459106445312,CHANGELINEI'm sorryCOMMA but as an AI language modelCOMMA I cannot perform web searches or provide
16,3228,0.903998851776123,0.9008474349975586,iourial science and the company’s business model to create the plan.CHANGELINEAs an AI
16,3230,0.7603409290313721,0.7494709491729736,CHANGELINESure! Here are a few suggestions:CHANGELINECHANGELINE1. Glen Keane - Former Disney
16,3266,0.7718122005462646,0.7667844295501709,CHANGELINEAs an AI language modelCOMMA I cannot provide opinions or suggestions. HoweverCOMMA here are some possible
16,3290,1.1359288692474365,0.8727028369903564,CHANGELINESure! React hooks are functions that allow you to use state and other React features without writing a
16,3298,0.8356590270996094,0.831035852432251,CHANGELINEThe European Union's energy ministers have reached a deal on a price cap for natural gasCOMMA
16,3313,0.8211050033569336,0.8169448375701904,one had a great holiday season and is ready to get back to work.CHANGELINECHANGELINE
16,3387,1.245919942855835,0.802983283996582,CHANGELINETo send the status of an electronic speed controller (ESC) to a ground station using
16,3409,1.042078971862793,0.8410229682922363, 1. ls - List files and directories in a directory. 2. cd -
16,3454,0.7331380844116211,0.7246038913726807,CHANGELINESure! What kind of character do you have in mind? A brave warriorCOMMA a cunning rogue
16,3472,0.713836669921875,0.7069010734558105,CHANGELINEI'm sorryCOMMA I am an AI language model and I do not have the capability to
16,3479,0.859976053237915,0.8521807193756104,.CHANGELINEI'm sorryCOMMA but as an AI language modelCOMMA I cannot pretend to be someone
16,3481,0.8540823459625244,0.8459820747375488,ocks.gethostbyname(server_name)COMMA server_port))CHANGELINE# Send a
16,3490,0.7317986488342285,0.727933406829834,CHANGELINEAs an AI language modelCOMMA I am not capable of running a Dungeons and Dragons campaign.
16,3520,0.7972011566162109,0.7890181541442871,CHANGELINEAs a non-executive directorCOMMA you can expect to be asked questions about your experienceCOMMA
16,3632,0.7863121032714844,0.7807784080505371,CHANGELINEThe three largest shareholders own 10% of the company's stockCOMMA which is 0
16,3638,0.8474154472351074,0.8356168270111084,CHANGELINECHANGELINEHere's one possible solution using the `matplotlib` library in Python:
16,3661,0.7434337139129639,0.7394530773162842,CHANGELINEThe investment thesis for providing equity capital to bitcoin mining and high-speed data facilities is that the
16,3667,0.8019630908966064,0.7939207553863525,.CHANGELINEWhat is the history of WhiteRidge? How did it come to be and what events
16,3790,0.7573916912078857,0.7550129890441895,CHANGELINEAs an AI language modelCOMMA I cannot predict the exact reactions of countries in the world. However
16,3842,0.7856137752532959,0.774463415145874,CHANGELINESome common terms in working memory research include:CHANGELINE- Working memory capacityCHANGELINE- Visuo-
16,3845,0.7173583507537842,0.7125766277313232,CHANGELINENepal is a landlocked country in South Asia. It is bordered by China to
